%%MatrixMarket matrix coordinate real general
% convdiff_upwind_484
% Convection-diffusion upwind, eps=0.05, beta=(1,0.5), 22x22 grid. Non-symmetric. Similar to Bai/olm500.
484 484 2332
1 1 140.3
1 2 -26.45
1 23 -26.45
2 1 -3.45
2 2 140.3
2 3 -26.45
2 24 -26.45
3 2 -3.45
3 3 140.3
3 4 -26.45
3 25 -26.45
4 3 -3.45
4 4 140.3
4 5 -26.45
4 26 -26.45
5 4 -3.45
5 5 140.3
5 6 -26.45
5 27 -26.45
6 5 -3.45
6 6 140.3
6 7 -26.45
6 28 -26.45
7 6 -3.45
7 7 140.3
7 8 -26.45
7 29 -26.45
8 7 -3.45
8 8 140.3
8 9 -26.45
8 30 -26.45
9 8 -3.45
9 9 140.3
9 10 -26.45
9 31 -26.45
10 9 -3.45
10 10 140.3
10 11 -26.45
10 32 -26.45
11 10 -3.45
11 11 140.3
11 12 -26.45
11 33 -26.45
12 11 -3.45
12 12 140.3
12 13 -26.45
12 34 -26.45
13 12 -3.45
13 13 140.3
13 14 -26.45
13 35 -26.45
14 13 -3.45
14 14 140.3
14 15 -26.45
14 36 -26.45
15 14 -3.45
15 15 140.3
15 16 -26.45
15 37 -26.45
16 15 -3.45
16 16 140.3
16 17 -26.45
16 38 -26.45
17 16 -3.45
17 17 140.3
17 18 -26.45
17 39 -26.45
18 17 -3.45
18 18 140.3
18 19 -26.45
18 40 -26.45
19 18 -3.45
19 19 140.3
19 20 -26.45
19 41 -26.45
20 19 -3.45
20 20 140.3
20 21 -26.45
20 42 -26.45
21 20 -3.45
21 21 140.3
21 22 -26.45
21 43 -26.45
22 21 -3.45
22 22 117.3
22 44 -26.45
23 1 -14.95
23 23 140.3
23 24 -26.45
23 45 -26.45
24 2 -14.95
24 23 -3.45
24 24 140.3
24 25 -26.45
24 46 -26.45
25 3 -14.95
25 24 -3.45
25 25 140.3
25 26 -26.45
25 47 -26.45
26 4 -14.95
26 25 -3.45
26 26 140.3
26 27 -26.45
26 48 -26.45
27 5 -14.95
27 26 -3.45
27 27 140.3
27 28 -26.45
27 49 -26.45
28 6 -14.95
28 27 -3.45
28 28 140.3
28 29 -26.45
28 50 -26.45
29 7 -14.95
29 28 -3.45
29 29 140.3
29 30 -26.45
29 51 -26.45
30 8 -14.95
30 29 -3.45
30 30 140.3
30 31 -26.45
30 52 -26.45
31 9 -14.95
31 30 -3.45
31 31 140.3
31 32 -26.45
31 53 -26.45
32 10 -14.95
32 31 -3.45
32 32 140.3
32 33 -26.45
32 54 -26.45
33 11 -14.95
33 32 -3.45
33 33 140.3
33 34 -26.45
33 55 -26.45
34 12 -14.95
34 33 -3.45
34 34 140.3
34 35 -26.45
34 56 -26.45
35 13 -14.95
35 34 -3.45
35 35 140.3
35 36 -26.45
35 57 -26.45
36 14 -14.95
36 35 -3.45
36 36 140.3
36 37 -26.45
36 58 -26.45
37 15 -14.95
37 36 -3.45
37 37 140.3
37 38 -26.45
37 59 -26.45
38 16 -14.95
38 37 -3.45
38 38 140.3
38 39 -26.45
38 60 -26.45
39 17 -14.95
39 38 -3.45
39 39 140.3
39 40 -26.45
39 61 -26.45
40 18 -14.95
40 39 -3.45
40 40 140.3
40 41 -26.45
40 62 -26.45
41 19 -14.95
41 40 -3.45
41 41 140.3
41 42 -26.45
41 63 -26.45
42 20 -14.95
42 41 -3.45
42 42 140.3
42 43 -26.45
42 64 -26.45
43 21 -14.95
43 42 -3.45
43 43 140.3
43 44 -26.45
43 65 -26.45
44 22 -14.95
44 43 -3.45
44 44 117.3
44 66 -26.45
45 23 -14.95
45 45 140.3
45 46 -26.45
45 67 -26.45
46 24 -14.95
46 45 -3.45
46 46 140.3
46 47 -26.45
46 68 -26.45
47 25 -14.95
47 46 -3.45
47 47 140.3
47 48 -26.45
47 69 -26.45
48 26 -14.95
48 47 -3.45
48 48 140.3
48 49 -26.45
48 70 -26.45
49 27 -14.95
49 48 -3.45
49 49 140.3
49 50 -26.45
49 71 -26.45
50 28 -14.95
50 49 -3.45
50 50 140.3
50 51 -26.45
50 72 -26.45
51 29 -14.95
51 50 -3.45
51 51 140.3
51 52 -26.45
51 73 -26.45
52 30 -14.95
52 51 -3.45
52 52 140.3
52 53 -26.45
52 74 -26.45
53 31 -14.95
53 52 -3.45
53 53 140.3
53 54 -26.45
53 75 -26.45
54 32 -14.95
54 53 -3.45
54 54 140.3
54 55 -26.45
54 76 -26.45
55 33 -14.95
55 54 -3.45
55 55 140.3
55 56 -26.45
55 77 -26.45
56 34 -14.95
56 55 -3.45
56 56 140.3
56 57 -26.45
56 78 -26.45
57 35 -14.95
57 56 -3.45
57 57 140.3
57 58 -26.45
57 79 -26.45
58 36 -14.95
58 57 -3.45
58 58 140.3
58 59 -26.45
58 80 -26.45
59 37 -14.95
59 58 -3.45
59 59 140.3
59 60 -26.45
59 81 -26.45
60 38 -14.95
60 59 -3.45
60 60 140.3
60 61 -26.45
60 82 -26.45
61 39 -14.95
61 60 -3.45
61 61 140.3
61 62 -26.45
61 83 -26.45
62 40 -14.95
62 61 -3.45
62 62 140.3
62 63 -26.45
62 84 -26.45
63 41 -14.95
63 62 -3.45
63 63 140.3
63 64 -26.45
63 85 -26.45
64 42 -14.95
64 63 -3.45
64 64 140.3
64 65 -26.45
64 86 -26.45
65 43 -14.95
65 64 -3.45
65 65 140.3
65 66 -26.45
65 87 -26.45
66 44 -14.95
66 65 -3.45
66 66 117.3
66 88 -26.45
67 45 -14.95
67 67 140.3
67 68 -26.45
67 89 -26.45
68 46 -14.95
68 67 -3.45
68 68 140.3
68 69 -26.45
68 90 -26.45
69 47 -14.95
69 68 -3.45
69 69 140.3
69 70 -26.45
69 91 -26.45
70 48 -14.95
70 69 -3.45
70 70 140.3
70 71 -26.45
70 92 -26.45
71 49 -14.95
71 70 -3.45
71 71 140.3
71 72 -26.45
71 93 -26.45
72 50 -14.95
72 71 -3.45
72 72 140.3
72 73 -26.45
72 94 -26.45
73 51 -14.95
73 72 -3.45
73 73 140.3
73 74 -26.45
73 95 -26.45
74 52 -14.95
74 73 -3.45
74 74 140.3
74 75 -26.45
74 96 -26.45
75 53 -14.95
75 74 -3.45
75 75 140.3
75 76 -26.45
75 97 -26.45
76 54 -14.95
76 75 -3.45
76 76 140.3
76 77 -26.45
76 98 -26.45
77 55 -14.95
77 76 -3.45
77 77 140.3
77 78 -26.45
77 99 -26.45
78 56 -14.95
78 77 -3.45
78 78 140.3
78 79 -26.45
78 100 -26.45
79 57 -14.95
79 78 -3.45
79 79 140.3
79 80 -26.45
79 101 -26.45
80 58 -14.95
80 79 -3.45
80 80 140.3
80 81 -26.45
80 102 -26.45
81 59 -14.95
81 80 -3.45
81 81 140.3
81 82 -26.45
81 103 -26.45
82 60 -14.95
82 81 -3.45
82 82 140.3
82 83 -26.45
82 104 -26.45
83 61 -14.95
83 82 -3.45
83 83 140.3
83 84 -26.45
83 105 -26.45
84 62 -14.95
84 83 -3.45
84 84 140.3
84 85 -26.45
84 106 -26.45
85 63 -14.95
85 84 -3.45
85 85 140.3
85 86 -26.45
85 107 -26.45
86 64 -14.95
86 85 -3.45
86 86 140.3
86 87 -26.45
86 108 -26.45
87 65 -14.95
87 86 -3.45
87 87 140.3
87 88 -26.45
87 109 -26.45
88 66 -14.95
88 87 -3.45
88 88 117.3
88 110 -26.45
89 67 -14.95
89 89 140.3
89 90 -26.45
89 111 -26.45
90 68 -14.95
90 89 -3.45
90 90 140.3
90 91 -26.45
90 112 -26.45
91 69 -14.95
91 90 -3.45
91 91 140.3
91 92 -26.45
91 113 -26.45
92 70 -14.95
92 91 -3.45
92 92 140.3
92 93 -26.45
92 114 -26.45
93 71 -14.95
93 92 -3.45
93 93 140.3
93 94 -26.45
93 115 -26.45
94 72 -14.95
94 93 -3.45
94 94 140.3
94 95 -26.45
94 116 -26.45
95 73 -14.95
95 94 -3.45
95 95 140.3
95 96 -26.45
95 117 -26.45
96 74 -14.95
96 95 -3.45
96 96 140.3
96 97 -26.45
96 118 -26.45
97 75 -14.95
97 96 -3.45
97 97 140.3
97 98 -26.45
97 119 -26.45
98 76 -14.95
98 97 -3.45
98 98 140.3
98 99 -26.45
98 120 -26.45
99 77 -14.95
99 98 -3.45
99 99 140.3
99 100 -26.45
99 121 -26.45
100 78 -14.95
100 99 -3.45
100 100 140.3
100 101 -26.45
100 122 -26.45
101 79 -14.95
101 100 -3.45
101 101 140.3
101 102 -26.45
101 123 -26.45
102 80 -14.95
102 101 -3.45
102 102 140.3
102 103 -26.45
102 124 -26.45
103 81 -14.95
103 102 -3.45
103 103 140.3
103 104 -26.45
103 125 -26.45
104 82 -14.95
104 103 -3.45
104 104 140.3
104 105 -26.45
104 126 -26.45
105 83 -14.95
105 104 -3.45
105 105 140.3
105 106 -26.45
105 127 -26.45
106 84 -14.95
106 105 -3.45
106 106 140.3
106 107 -26.45
106 128 -26.45
107 85 -14.95
107 106 -3.45
107 107 140.3
107 108 -26.45
107 129 -26.45
108 86 -14.95
108 107 -3.45
108 108 140.3
108 109 -26.45
108 130 -26.45
109 87 -14.95
109 108 -3.45
109 109 140.3
109 110 -26.45
109 131 -26.45
110 88 -14.95
110 109 -3.45
110 110 117.3
110 132 -26.45
111 89 -14.95
111 111 140.3
111 112 -26.45
111 133 -26.45
112 90 -14.95
112 111 -3.45
112 112 140.3
112 113 -26.45
112 134 -26.45
113 91 -14.95
113 112 -3.45
113 113 140.3
113 114 -26.45
113 135 -26.45
114 92 -14.95
114 113 -3.45
114 114 140.3
114 115 -26.45
114 136 -26.45
115 93 -14.95
115 114 -3.45
115 115 140.3
115 116 -26.45
115 137 -26.45
116 94 -14.95
116 115 -3.45
116 116 140.3
116 117 -26.45
116 138 -26.45
117 95 -14.95
117 116 -3.45
117 117 140.3
117 118 -26.45
117 139 -26.45
118 96 -14.95
118 117 -3.45
118 118 140.3
118 119 -26.45
118 140 -26.45
119 97 -14.95
119 118 -3.45
119 119 140.3
119 120 -26.45
119 141 -26.45
120 98 -14.95
120 119 -3.45
120 120 140.3
120 121 -26.45
120 142 -26.45
121 99 -14.95
121 120 -3.45
121 121 140.3
121 122 -26.45
121 143 -26.45
122 100 -14.95
122 121 -3.45
122 122 140.3
122 123 -26.45
122 144 -26.45
123 101 -14.95
123 122 -3.45
123 123 140.3
123 124 -26.45
123 145 -26.45
124 102 -14.95
124 123 -3.45
124 124 140.3
124 125 -26.45
124 146 -26.45
125 103 -14.95
125 124 -3.45
125 125 140.3
125 126 -26.45
125 147 -26.45
126 104 -14.95
126 125 -3.45
126 126 140.3
126 127 -26.45
126 148 -26.45
127 105 -14.95
127 126 -3.45
127 127 140.3
127 128 -26.45
127 149 -26.45
128 106 -14.95
128 127 -3.45
128 128 140.3
128 129 -26.45
128 150 -26.45
129 107 -14.95
129 128 -3.45
129 129 140.3
129 130 -26.45
129 151 -26.45
130 108 -14.95
130 129 -3.45
130 130 140.3
130 131 -26.45
130 152 -26.45
131 109 -14.95
131 130 -3.45
131 131 140.3
131 132 -26.45
131 153 -26.45
132 110 -14.95
132 131 -3.45
132 132 117.3
132 154 -26.45
133 111 -14.95
133 133 140.3
133 134 -26.45
133 155 -26.45
134 112 -14.95
134 133 -3.45
134 134 140.3
134 135 -26.45
134 156 -26.45
135 113 -14.95
135 134 -3.45
135 135 140.3
135 136 -26.45
135 157 -26.45
136 114 -14.95
136 135 -3.45
136 136 140.3
136 137 -26.45
136 158 -26.45
137 115 -14.95
137 136 -3.45
137 137 140.3
137 138 -26.45
137 159 -26.45
138 116 -14.95
138 137 -3.45
138 138 140.3
138 139 -26.45
138 160 -26.45
139 117 -14.95
139 138 -3.45
139 139 140.3
139 140 -26.45
139 161 -26.45
140 118 -14.95
140 139 -3.45
140 140 140.3
140 141 -26.45
140 162 -26.45
141 119 -14.95
141 140 -3.45
141 141 140.3
141 142 -26.45
141 163 -26.45
142 120 -14.95
142 141 -3.45
142 142 140.3
142 143 -26.45
142 164 -26.45
143 121 -14.95
143 142 -3.45
143 143 140.3
143 144 -26.45
143 165 -26.45
144 122 -14.95
144 143 -3.45
144 144 140.3
144 145 -26.45
144 166 -26.45
145 123 -14.95
145 144 -3.45
145 145 140.3
145 146 -26.45
145 167 -26.45
146 124 -14.95
146 145 -3.45
146 146 140.3
146 147 -26.45
146 168 -26.45
147 125 -14.95
147 146 -3.45
147 147 140.3
147 148 -26.45
147 169 -26.45
148 126 -14.95
148 147 -3.45
148 148 140.3
148 149 -26.45
148 170 -26.45
149 127 -14.95
149 148 -3.45
149 149 140.3
149 150 -26.45
149 171 -26.45
150 128 -14.95
150 149 -3.45
150 150 140.3
150 151 -26.45
150 172 -26.45
151 129 -14.95
151 150 -3.45
151 151 140.3
151 152 -26.45
151 173 -26.45
152 130 -14.95
152 151 -3.45
152 152 140.3
152 153 -26.45
152 174 -26.45
153 131 -14.95
153 152 -3.45
153 153 140.3
153 154 -26.45
153 175 -26.45
154 132 -14.95
154 153 -3.45
154 154 117.3
154 176 -26.45
155 133 -14.95
155 155 140.3
155 156 -26.45
155 177 -26.45
156 134 -14.95
156 155 -3.45
156 156 140.3
156 157 -26.45
156 178 -26.45
157 135 -14.95
157 156 -3.45
157 157 140.3
157 158 -26.45
157 179 -26.45
158 136 -14.95
158 157 -3.45
158 158 140.3
158 159 -26.45
158 180 -26.45
159 137 -14.95
159 158 -3.45
159 159 140.3
159 160 -26.45
159 181 -26.45
160 138 -14.95
160 159 -3.45
160 160 140.3
160 161 -26.45
160 182 -26.45
161 139 -14.95
161 160 -3.45
161 161 140.3
161 162 -26.45
161 183 -26.45
162 140 -14.95
162 161 -3.45
162 162 140.3
162 163 -26.45
162 184 -26.45
163 141 -14.95
163 162 -3.45
163 163 140.3
163 164 -26.45
163 185 -26.45
164 142 -14.95
164 163 -3.45
164 164 140.3
164 165 -26.45
164 186 -26.45
165 143 -14.95
165 164 -3.45
165 165 140.3
165 166 -26.45
165 187 -26.45
166 144 -14.95
166 165 -3.45
166 166 140.3
166 167 -26.45
166 188 -26.45
167 145 -14.95
167 166 -3.45
167 167 140.3
167 168 -26.45
167 189 -26.45
168 146 -14.95
168 167 -3.45
168 168 140.3
168 169 -26.45
168 190 -26.45
169 147 -14.95
169 168 -3.45
169 169 140.3
169 170 -26.45
169 191 -26.45
170 148 -14.95
170 169 -3.45
170 170 140.3
170 171 -26.45
170 192 -26.45
171 149 -14.95
171 170 -3.45
171 171 140.3
171 172 -26.45
171 193 -26.45
172 150 -14.95
172 171 -3.45
172 172 140.3
172 173 -26.45
172 194 -26.45
173 151 -14.95
173 172 -3.45
173 173 140.3
173 174 -26.45
173 195 -26.45
174 152 -14.95
174 173 -3.45
174 174 140.3
174 175 -26.45
174 196 -26.45
175 153 -14.95
175 174 -3.45
175 175 140.3
175 176 -26.45
175 197 -26.45
176 154 -14.95
176 175 -3.45
176 176 117.3
176 198 -26.45
177 155 -14.95
177 177 140.3
177 178 -26.45
177 199 -26.45
178 156 -14.95
178 177 -3.45
178 178 140.3
178 179 -26.45
178 200 -26.45
179 157 -14.95
179 178 -3.45
179 179 140.3
179 180 -26.45
179 201 -26.45
180 158 -14.95
180 179 -3.45
180 180 140.3
180 181 -26.45
180 202 -26.45
181 159 -14.95
181 180 -3.45
181 181 140.3
181 182 -26.45
181 203 -26.45
182 160 -14.95
182 181 -3.45
182 182 140.3
182 183 -26.45
182 204 -26.45
183 161 -14.95
183 182 -3.45
183 183 140.3
183 184 -26.45
183 205 -26.45
184 162 -14.95
184 183 -3.45
184 184 140.3
184 185 -26.45
184 206 -26.45
185 163 -14.95
185 184 -3.45
185 185 140.3
185 186 -26.45
185 207 -26.45
186 164 -14.95
186 185 -3.45
186 186 140.3
186 187 -26.45
186 208 -26.45
187 165 -14.95
187 186 -3.45
187 187 140.3
187 188 -26.45
187 209 -26.45
188 166 -14.95
188 187 -3.45
188 188 140.3
188 189 -26.45
188 210 -26.45
189 167 -14.95
189 188 -3.45
189 189 140.3
189 190 -26.45
189 211 -26.45
190 168 -14.95
190 189 -3.45
190 190 140.3
190 191 -26.45
190 212 -26.45
191 169 -14.95
191 190 -3.45
191 191 140.3
191 192 -26.45
191 213 -26.45
192 170 -14.95
192 191 -3.45
192 192 140.3
192 193 -26.45
192 214 -26.45
193 171 -14.95
193 192 -3.45
193 193 140.3
193 194 -26.45
193 215 -26.45
194 172 -14.95
194 193 -3.45
194 194 140.3
194 195 -26.45
194 216 -26.45
195 173 -14.95
195 194 -3.45
195 195 140.3
195 196 -26.45
195 217 -26.45
196 174 -14.95
196 195 -3.45
196 196 140.3
196 197 -26.45
196 218 -26.45
197 175 -14.95
197 196 -3.45
197 197 140.3
197 198 -26.45
197 219 -26.45
198 176 -14.95
198 197 -3.45
198 198 117.3
198 220 -26.45
199 177 -14.95
199 199 140.3
199 200 -26.45
199 221 -26.45
200 178 -14.95
200 199 -3.45
200 200 140.3
200 201 -26.45
200 222 -26.45
201 179 -14.95
201 200 -3.45
201 201 140.3
201 202 -26.45
201 223 -26.45
202 180 -14.95
202 201 -3.45
202 202 140.3
202 203 -26.45
202 224 -26.45
203 181 -14.95
203 202 -3.45
203 203 140.3
203 204 -26.45
203 225 -26.45
204 182 -14.95
204 203 -3.45
204 204 140.3
204 205 -26.45
204 226 -26.45
205 183 -14.95
205 204 -3.45
205 205 140.3
205 206 -26.45
205 227 -26.45
206 184 -14.95
206 205 -3.45
206 206 140.3
206 207 -26.45
206 228 -26.45
207 185 -14.95
207 206 -3.45
207 207 140.3
207 208 -26.45
207 229 -26.45
208 186 -14.95
208 207 -3.45
208 208 140.3
208 209 -26.45
208 230 -26.45
209 187 -14.95
209 208 -3.45
209 209 140.3
209 210 -26.45
209 231 -26.45
210 188 -14.95
210 209 -3.45
210 210 140.3
210 211 -26.45
210 232 -26.45
211 189 -14.95
211 210 -3.45
211 211 140.3
211 212 -26.45
211 233 -26.45
212 190 -14.95
212 211 -3.45
212 212 140.3
212 213 -26.45
212 234 -26.45
213 191 -14.95
213 212 -3.45
213 213 140.3
213 214 -26.45
213 235 -26.45
214 192 -14.95
214 213 -3.45
214 214 140.3
214 215 -26.45
214 236 -26.45
215 193 -14.95
215 214 -3.45
215 215 140.3
215 216 -26.45
215 237 -26.45
216 194 -14.95
216 215 -3.45
216 216 140.3
216 217 -26.45
216 238 -26.45
217 195 -14.95
217 216 -3.45
217 217 140.3
217 218 -26.45
217 239 -26.45
218 196 -14.95
218 217 -3.45
218 218 140.3
218 219 -26.45
218 240 -26.45
219 197 -14.95
219 218 -3.45
219 219 140.3
219 220 -26.45
219 241 -26.45
220 198 -14.95
220 219 -3.45
220 220 117.3
220 242 -26.45
221 199 -14.95
221 221 140.3
221 222 -26.45
221 243 -26.45
222 200 -14.95
222 221 -3.45
222 222 140.3
222 223 -26.45
222 244 -26.45
223 201 -14.95
223 222 -3.45
223 223 140.3
223 224 -26.45
223 245 -26.45
224 202 -14.95
224 223 -3.45
224 224 140.3
224 225 -26.45
224 246 -26.45
225 203 -14.95
225 224 -3.45
225 225 140.3
225 226 -26.45
225 247 -26.45
226 204 -14.95
226 225 -3.45
226 226 140.3
226 227 -26.45
226 248 -26.45
227 205 -14.95
227 226 -3.45
227 227 140.3
227 228 -26.45
227 249 -26.45
228 206 -14.95
228 227 -3.45
228 228 140.3
228 229 -26.45
228 250 -26.45
229 207 -14.95
229 228 -3.45
229 229 140.3
229 230 -26.45
229 251 -26.45
230 208 -14.95
230 229 -3.45
230 230 140.3
230 231 -26.45
230 252 -26.45
231 209 -14.95
231 230 -3.45
231 231 140.3
231 232 -26.45
231 253 -26.45
232 210 -14.95
232 231 -3.45
232 232 140.3
232 233 -26.45
232 254 -26.45
233 211 -14.95
233 232 -3.45
233 233 140.3
233 234 -26.45
233 255 -26.45
234 212 -14.95
234 233 -3.45
234 234 140.3
234 235 -26.45
234 256 -26.45
235 213 -14.95
235 234 -3.45
235 235 140.3
235 236 -26.45
235 257 -26.45
236 214 -14.95
236 235 -3.45
236 236 140.3
236 237 -26.45
236 258 -26.45
237 215 -14.95
237 236 -3.45
237 237 140.3
237 238 -26.45
237 259 -26.45
238 216 -14.95
238 237 -3.45
238 238 140.3
238 239 -26.45
238 260 -26.45
239 217 -14.95
239 238 -3.45
239 239 140.3
239 240 -26.45
239 261 -26.45
240 218 -14.95
240 239 -3.45
240 240 140.3
240 241 -26.45
240 262 -26.45
241 219 -14.95
241 240 -3.45
241 241 140.3
241 242 -26.45
241 263 -26.45
242 220 -14.95
242 241 -3.45
242 242 117.3
242 264 -26.45
243 221 -14.95
243 243 140.3
243 244 -26.45
243 265 -26.45
244 222 -14.95
244 243 -3.45
244 244 140.3
244 245 -26.45
244 266 -26.45
245 223 -14.95
245 244 -3.45
245 245 140.3
245 246 -26.45
245 267 -26.45
246 224 -14.95
246 245 -3.45
246 246 140.3
246 247 -26.45
246 268 -26.45
247 225 -14.95
247 246 -3.45
247 247 140.3
247 248 -26.45
247 269 -26.45
248 226 -14.95
248 247 -3.45
248 248 140.3
248 249 -26.45
248 270 -26.45
249 227 -14.95
249 248 -3.45
249 249 140.3
249 250 -26.45
249 271 -26.45
250 228 -14.95
250 249 -3.45
250 250 140.3
250 251 -26.45
250 272 -26.45
251 229 -14.95
251 250 -3.45
251 251 140.3
251 252 -26.45
251 273 -26.45
252 230 -14.95
252 251 -3.45
252 252 140.3
252 253 -26.45
252 274 -26.45
253 231 -14.95
253 252 -3.45
253 253 140.3
253 254 -26.45
253 275 -26.45
254 232 -14.95
254 253 -3.45
254 254 140.3
254 255 -26.45
254 276 -26.45
255 233 -14.95
255 254 -3.45
255 255 140.3
255 256 -26.45
255 277 -26.45
256 234 -14.95
256 255 -3.45
256 256 140.3
256 257 -26.45
256 278 -26.45
257 235 -14.95
257 256 -3.45
257 257 140.3
257 258 -26.45
257 279 -26.45
258 236 -14.95
258 257 -3.45
258 258 140.3
258 259 -26.45
258 280 -26.45
259 237 -14.95
259 258 -3.45
259 259 140.3
259 260 -26.45
259 281 -26.45
260 238 -14.95
260 259 -3.45
260 260 140.3
260 261 -26.45
260 282 -26.45
261 239 -14.95
261 260 -3.45
261 261 140.3
261 262 -26.45
261 283 -26.45
262 240 -14.95
262 261 -3.45
262 262 140.3
262 263 -26.45
262 284 -26.45
263 241 -14.95
263 262 -3.45
263 263 140.3
263 264 -26.45
263 285 -26.45
264 242 -14.95
264 263 -3.45
264 264 117.3
264 286 -26.45
265 243 -14.95
265 265 140.3
265 266 -26.45
265 287 -26.45
266 244 -14.95
266 265 -3.45
266 266 140.3
266 267 -26.45
266 288 -26.45
267 245 -14.95
267 266 -3.45
267 267 140.3
267 268 -26.45
267 289 -26.45
268 246 -14.95
268 267 -3.45
268 268 140.3
268 269 -26.45
268 290 -26.45
269 247 -14.95
269 268 -3.45
269 269 140.3
269 270 -26.45
269 291 -26.45
270 248 -14.95
270 269 -3.45
270 270 140.3
270 271 -26.45
270 292 -26.45
271 249 -14.95
271 270 -3.45
271 271 140.3
271 272 -26.45
271 293 -26.45
272 250 -14.95
272 271 -3.45
272 272 140.3
272 273 -26.45
272 294 -26.45
273 251 -14.95
273 272 -3.45
273 273 140.3
273 274 -26.45
273 295 -26.45
274 252 -14.95
274 273 -3.45
274 274 140.3
274 275 -26.45
274 296 -26.45
275 253 -14.95
275 274 -3.45
275 275 140.3
275 276 -26.45
275 297 -26.45
276 254 -14.95
276 275 -3.45
276 276 140.3
276 277 -26.45
276 298 -26.45
277 255 -14.95
277 276 -3.45
277 277 140.3
277 278 -26.45
277 299 -26.45
278 256 -14.95
278 277 -3.45
278 278 140.3
278 279 -26.45
278 300 -26.45
279 257 -14.95
279 278 -3.45
279 279 140.3
279 280 -26.45
279 301 -26.45
280 258 -14.95
280 279 -3.45
280 280 140.3
280 281 -26.45
280 302 -26.45
281 259 -14.95
281 280 -3.45
281 281 140.3
281 282 -26.45
281 303 -26.45
282 260 -14.95
282 281 -3.45
282 282 140.3
282 283 -26.45
282 304 -26.45
283 261 -14.95
283 282 -3.45
283 283 140.3
283 284 -26.45
283 305 -26.45
284 262 -14.95
284 283 -3.45
284 284 140.3
284 285 -26.45
284 306 -26.45
285 263 -14.95
285 284 -3.45
285 285 140.3
285 286 -26.45
285 307 -26.45
286 264 -14.95
286 285 -3.45
286 286 117.3
286 308 -26.45
287 265 -14.95
287 287 140.3
287 288 -26.45
287 309 -26.45
288 266 -14.95
288 287 -3.45
288 288 140.3
288 289 -26.45
288 310 -26.45
289 267 -14.95
289 288 -3.45
289 289 140.3
289 290 -26.45
289 311 -26.45
290 268 -14.95
290 289 -3.45
290 290 140.3
290 291 -26.45
290 312 -26.45
291 269 -14.95
291 290 -3.45
291 291 140.3
291 292 -26.45
291 313 -26.45
292 270 -14.95
292 291 -3.45
292 292 140.3
292 293 -26.45
292 314 -26.45
293 271 -14.95
293 292 -3.45
293 293 140.3
293 294 -26.45
293 315 -26.45
294 272 -14.95
294 293 -3.45
294 294 140.3
294 295 -26.45
294 316 -26.45
295 273 -14.95
295 294 -3.45
295 295 140.3
295 296 -26.45
295 317 -26.45
296 274 -14.95
296 295 -3.45
296 296 140.3
296 297 -26.45
296 318 -26.45
297 275 -14.95
297 296 -3.45
297 297 140.3
297 298 -26.45
297 319 -26.45
298 276 -14.95
298 297 -3.45
298 298 140.3
298 299 -26.45
298 320 -26.45
299 277 -14.95
299 298 -3.45
299 299 140.3
299 300 -26.45
299 321 -26.45
300 278 -14.95
300 299 -3.45
300 300 140.3
300 301 -26.45
300 322 -26.45
301 279 -14.95
301 300 -3.45
301 301 140.3
301 302 -26.45
301 323 -26.45
302 280 -14.95
302 301 -3.45
302 302 140.3
302 303 -26.45
302 324 -26.45
303 281 -14.95
303 302 -3.45
303 303 140.3
303 304 -26.45
303 325 -26.45
304 282 -14.95
304 303 -3.45
304 304 140.3
304 305 -26.45
304 326 -26.45
305 283 -14.95
305 304 -3.45
305 305 140.3
305 306 -26.45
305 327 -26.45
306 284 -14.95
306 305 -3.45
306 306 140.3
306 307 -26.45
306 328 -26.45
307 285 -14.95
307 306 -3.45
307 307 140.3
307 308 -26.45
307 329 -26.45
308 286 -14.95
308 307 -3.45
308 308 117.3
308 330 -26.45
309 287 -14.95
309 309 140.3
309 310 -26.45
309 331 -26.45
310 288 -14.95
310 309 -3.45
310 310 140.3
310 311 -26.45
310 332 -26.45
311 289 -14.95
311 310 -3.45
311 311 140.3
311 312 -26.45
311 333 -26.45
312 290 -14.95
312 311 -3.45
312 312 140.3
312 313 -26.45
312 334 -26.45
313 291 -14.95
313 312 -3.45
313 313 140.3
313 314 -26.45
313 335 -26.45
314 292 -14.95
314 313 -3.45
314 314 140.3
314 315 -26.45
314 336 -26.45
315 293 -14.95
315 314 -3.45
315 315 140.3
315 316 -26.45
315 337 -26.45
316 294 -14.95
316 315 -3.45
316 316 140.3
316 317 -26.45
316 338 -26.45
317 295 -14.95
317 316 -3.45
317 317 140.3
317 318 -26.45
317 339 -26.45
318 296 -14.95
318 317 -3.45
318 318 140.3
318 319 -26.45
318 340 -26.45
319 297 -14.95
319 318 -3.45
319 319 140.3
319 320 -26.45
319 341 -26.45
320 298 -14.95
320 319 -3.45
320 320 140.3
320 321 -26.45
320 342 -26.45
321 299 -14.95
321 320 -3.45
321 321 140.3
321 322 -26.45
321 343 -26.45
322 300 -14.95
322 321 -3.45
322 322 140.3
322 323 -26.45
322 344 -26.45
323 301 -14.95
323 322 -3.45
323 323 140.3
323 324 -26.45
323 345 -26.45
324 302 -14.95
324 323 -3.45
324 324 140.3
324 325 -26.45
324 346 -26.45
325 303 -14.95
325 324 -3.45
325 325 140.3
325 326 -26.45
325 347 -26.45
326 304 -14.95
326 325 -3.45
326 326 140.3
326 327 -26.45
326 348 -26.45
327 305 -14.95
327 326 -3.45
327 327 140.3
327 328 -26.45
327 349 -26.45
328 306 -14.95
328 327 -3.45
328 328 140.3
328 329 -26.45
328 350 -26.45
329 307 -14.95
329 328 -3.45
329 329 140.3
329 330 -26.45
329 351 -26.45
330 308 -14.95
330 329 -3.45
330 330 117.3
330 352 -26.45
331 309 -14.95
331 331 140.3
331 332 -26.45
331 353 -26.45
332 310 -14.95
332 331 -3.45
332 332 140.3
332 333 -26.45
332 354 -26.45
333 311 -14.95
333 332 -3.45
333 333 140.3
333 334 -26.45
333 355 -26.45
334 312 -14.95
334 333 -3.45
334 334 140.3
334 335 -26.45
334 356 -26.45
335 313 -14.95
335 334 -3.45
335 335 140.3
335 336 -26.45
335 357 -26.45
336 314 -14.95
336 335 -3.45
336 336 140.3
336 337 -26.45
336 358 -26.45
337 315 -14.95
337 336 -3.45
337 337 140.3
337 338 -26.45
337 359 -26.45
338 316 -14.95
338 337 -3.45
338 338 140.3
338 339 -26.45
338 360 -26.45
339 317 -14.95
339 338 -3.45
339 339 140.3
339 340 -26.45
339 361 -26.45
340 318 -14.95
340 339 -3.45
340 340 140.3
340 341 -26.45
340 362 -26.45
341 319 -14.95
341 340 -3.45
341 341 140.3
341 342 -26.45
341 363 -26.45
342 320 -14.95
342 341 -3.45
342 342 140.3
342 343 -26.45
342 364 -26.45
343 321 -14.95
343 342 -3.45
343 343 140.3
343 344 -26.45
343 365 -26.45
344 322 -14.95
344 343 -3.45
344 344 140.3
344 345 -26.45
344 366 -26.45
345 323 -14.95
345 344 -3.45
345 345 140.3
345 346 -26.45
345 367 -26.45
346 324 -14.95
346 345 -3.45
346 346 140.3
346 347 -26.45
346 368 -26.45
347 325 -14.95
347 346 -3.45
347 347 140.3
347 348 -26.45
347 369 -26.45
348 326 -14.95
348 347 -3.45
348 348 140.3
348 349 -26.45
348 370 -26.45
349 327 -14.95
349 348 -3.45
349 349 140.3
349 350 -26.45
349 371 -26.45
350 328 -14.95
350 349 -3.45
350 350 140.3
350 351 -26.45
350 372 -26.45
351 329 -14.95
351 350 -3.45
351 351 140.3
351 352 -26.45
351 373 -26.45
352 330 -14.95
352 351 -3.45
352 352 117.3
352 374 -26.45
353 331 -14.95
353 353 140.3
353 354 -26.45
353 375 -26.45
354 332 -14.95
354 353 -3.45
354 354 140.3
354 355 -26.45
354 376 -26.45
355 333 -14.95
355 354 -3.45
355 355 140.3
355 356 -26.45
355 377 -26.45
356 334 -14.95
356 355 -3.45
356 356 140.3
356 357 -26.45
356 378 -26.45
357 335 -14.95
357 356 -3.45
357 357 140.3
357 358 -26.45
357 379 -26.45
358 336 -14.95
358 357 -3.45
358 358 140.3
358 359 -26.45
358 380 -26.45
359 337 -14.95
359 358 -3.45
359 359 140.3
359 360 -26.45
359 381 -26.45
360 338 -14.95
360 359 -3.45
360 360 140.3
360 361 -26.45
360 382 -26.45
361 339 -14.95
361 360 -3.45
361 361 140.3
361 362 -26.45
361 383 -26.45
362 340 -14.95
362 361 -3.45
362 362 140.3
362 363 -26.45
362 384 -26.45
363 341 -14.95
363 362 -3.45
363 363 140.3
363 364 -26.45
363 385 -26.45
364 342 -14.95
364 363 -3.45
364 364 140.3
364 365 -26.45
364 386 -26.45
365 343 -14.95
365 364 -3.45
365 365 140.3
365 366 -26.45
365 387 -26.45
366 344 -14.95
366 365 -3.45
366 366 140.3
366 367 -26.45
366 388 -26.45
367 345 -14.95
367 366 -3.45
367 367 140.3
367 368 -26.45
367 389 -26.45
368 346 -14.95
368 367 -3.45
368 368 140.3
368 369 -26.45
368 390 -26.45
369 347 -14.95
369 368 -3.45
369 369 140.3
369 370 -26.45
369 391 -26.45
370 348 -14.95
370 369 -3.45
370 370 140.3
370 371 -26.45
370 392 -26.45
371 349 -14.95
371 370 -3.45
371 371 140.3
371 372 -26.45
371 393 -26.45
372 350 -14.95
372 371 -3.45
372 372 140.3
372 373 -26.45
372 394 -26.45
373 351 -14.95
373 372 -3.45
373 373 140.3
373 374 -26.45
373 395 -26.45
374 352 -14.95
374 373 -3.45
374 374 117.3
374 396 -26.45
375 353 -14.95
375 375 140.3
375 376 -26.45
375 397 -26.45
376 354 -14.95
376 375 -3.45
376 376 140.3
376 377 -26.45
376 398 -26.45
377 355 -14.95
377 376 -3.45
377 377 140.3
377 378 -26.45
377 399 -26.45
378 356 -14.95
378 377 -3.45
378 378 140.3
378 379 -26.45
378 400 -26.45
379 357 -14.95
379 378 -3.45
379 379 140.3
379 380 -26.45
379 401 -26.45
380 358 -14.95
380 379 -3.45
380 380 140.3
380 381 -26.45
380 402 -26.45
381 359 -14.95
381 380 -3.45
381 381 140.3
381 382 -26.45
381 403 -26.45
382 360 -14.95
382 381 -3.45
382 382 140.3
382 383 -26.45
382 404 -26.45
383 361 -14.95
383 382 -3.45
383 383 140.3
383 384 -26.45
383 405 -26.45
384 362 -14.95
384 383 -3.45
384 384 140.3
384 385 -26.45
384 406 -26.45
385 363 -14.95
385 384 -3.45
385 385 140.3
385 386 -26.45
385 407 -26.45
386 364 -14.95
386 385 -3.45
386 386 140.3
386 387 -26.45
386 408 -26.45
387 365 -14.95
387 386 -3.45
387 387 140.3
387 388 -26.45
387 409 -26.45
388 366 -14.95
388 387 -3.45
388 388 140.3
388 389 -26.45
388 410 -26.45
389 367 -14.95
389 388 -3.45
389 389 140.3
389 390 -26.45
389 411 -26.45
390 368 -14.95
390 389 -3.45
390 390 140.3
390 391 -26.45
390 412 -26.45
391 369 -14.95
391 390 -3.45
391 391 140.3
391 392 -26.45
391 413 -26.45
392 370 -14.95
392 391 -3.45
392 392 140.3
392 393 -26.45
392 414 -26.45
393 371 -14.95
393 392 -3.45
393 393 140.3
393 394 -26.45
393 415 -26.45
394 372 -14.95
394 393 -3.45
394 394 140.3
394 395 -26.45
394 416 -26.45
395 373 -14.95
395 394 -3.45
395 395 140.3
395 396 -26.45
395 417 -26.45
396 374 -14.95
396 395 -3.45
396 396 117.3
396 418 -26.45
397 375 -14.95
397 397 140.3
397 398 -26.45
397 419 -26.45
398 376 -14.95
398 397 -3.45
398 398 140.3
398 399 -26.45
398 420 -26.45
399 377 -14.95
399 398 -3.45
399 399 140.3
399 400 -26.45
399 421 -26.45
400 378 -14.95
400 399 -3.45
400 400 140.3
400 401 -26.45
400 422 -26.45
401 379 -14.95
401 400 -3.45
401 401 140.3
401 402 -26.45
401 423 -26.45
402 380 -14.95
402 401 -3.45
402 402 140.3
402 403 -26.45
402 424 -26.45
403 381 -14.95
403 402 -3.45
403 403 140.3
403 404 -26.45
403 425 -26.45
404 382 -14.95
404 403 -3.45
404 404 140.3
404 405 -26.45
404 426 -26.45
405 383 -14.95
405 404 -3.45
405 405 140.3
405 406 -26.45
405 427 -26.45
406 384 -14.95
406 405 -3.45
406 406 140.3
406 407 -26.45
406 428 -26.45
407 385 -14.95
407 406 -3.45
407 407 140.3
407 408 -26.45
407 429 -26.45
408 386 -14.95
408 407 -3.45
408 408 140.3
408 409 -26.45
408 430 -26.45
409 387 -14.95
409 408 -3.45
409 409 140.3
409 410 -26.45
409 431 -26.45
410 388 -14.95
410 409 -3.45
410 410 140.3
410 411 -26.45
410 432 -26.45
411 389 -14.95
411 410 -3.45
411 411 140.3
411 412 -26.45
411 433 -26.45
412 390 -14.95
412 411 -3.45
412 412 140.3
412 413 -26.45
412 434 -26.45
413 391 -14.95
413 412 -3.45
413 413 140.3
413 414 -26.45
413 435 -26.45
414 392 -14.95
414 413 -3.45
414 414 140.3
414 415 -26.45
414 436 -26.45
415 393 -14.95
415 414 -3.45
415 415 140.3
415 416 -26.45
415 437 -26.45
416 394 -14.95
416 415 -3.45
416 416 140.3
416 417 -26.45
416 438 -26.45
417 395 -14.95
417 416 -3.45
417 417 140.3
417 418 -26.45
417 439 -26.45
418 396 -14.95
418 417 -3.45
418 418 117.3
418 440 -26.45
419 397 -14.95
419 419 140.3
419 420 -26.45
419 441 -26.45
420 398 -14.95
420 419 -3.45
420 420 140.3
420 421 -26.45
420 442 -26.45
421 399 -14.95
421 420 -3.45
421 421 140.3
421 422 -26.45
421 443 -26.45
422 400 -14.95
422 421 -3.45
422 422 140.3
422 423 -26.45
422 444 -26.45
423 401 -14.95
423 422 -3.45
423 423 140.3
423 424 -26.45
423 445 -26.45
424 402 -14.95
424 423 -3.45
424 424 140.3
424 425 -26.45
424 446 -26.45
425 403 -14.95
425 424 -3.45
425 425 140.3
425 426 -26.45
425 447 -26.45
426 404 -14.95
426 425 -3.45
426 426 140.3
426 427 -26.45
426 448 -26.45
427 405 -14.95
427 426 -3.45
427 427 140.3
427 428 -26.45
427 449 -26.45
428 406 -14.95
428 427 -3.45
428 428 140.3
428 429 -26.45
428 450 -26.45
429 407 -14.95
429 428 -3.45
429 429 140.3
429 430 -26.45
429 451 -26.45
430 408 -14.95
430 429 -3.45
430 430 140.3
430 431 -26.45
430 452 -26.45
431 409 -14.95
431 430 -3.45
431 431 140.3
431 432 -26.45
431 453 -26.45
432 410 -14.95
432 431 -3.45
432 432 140.3
432 433 -26.45
432 454 -26.45
433 411 -14.95
433 432 -3.45
433 433 140.3
433 434 -26.45
433 455 -26.45
434 412 -14.95
434 433 -3.45
434 434 140.3
434 435 -26.45
434 456 -26.45
435 413 -14.95
435 434 -3.45
435 435 140.3
435 436 -26.45
435 457 -26.45
436 414 -14.95
436 435 -3.45
436 436 140.3
436 437 -26.45
436 458 -26.45
437 415 -14.95
437 436 -3.45
437 437 140.3
437 438 -26.45
437 459 -26.45
438 416 -14.95
438 437 -3.45
438 438 140.3
438 439 -26.45
438 460 -26.45
439 417 -14.95
439 438 -3.45
439 439 140.3
439 440 -26.45
439 461 -26.45
440 418 -14.95
440 439 -3.45
440 440 117.3
440 462 -26.45
441 419 -14.95
441 441 140.3
441 442 -26.45
441 463 -26.45
442 420 -14.95
442 441 -3.45
442 442 140.3
442 443 -26.45
442 464 -26.45
443 421 -14.95
443 442 -3.45
443 443 140.3
443 444 -26.45
443 465 -26.45
444 422 -14.95
444 443 -3.45
444 444 140.3
444 445 -26.45
444 466 -26.45
445 423 -14.95
445 444 -3.45
445 445 140.3
445 446 -26.45
445 467 -26.45
446 424 -14.95
446 445 -3.45
446 446 140.3
446 447 -26.45
446 468 -26.45
447 425 -14.95
447 446 -3.45
447 447 140.3
447 448 -26.45
447 469 -26.45
448 426 -14.95
448 447 -3.45
448 448 140.3
448 449 -26.45
448 470 -26.45
449 427 -14.95
449 448 -3.45
449 449 140.3
449 450 -26.45
449 471 -26.45
450 428 -14.95
450 449 -3.45
450 450 140.3
450 451 -26.45
450 472 -26.45
451 429 -14.95
451 450 -3.45
451 451 140.3
451 452 -26.45
451 473 -26.45
452 430 -14.95
452 451 -3.45
452 452 140.3
452 453 -26.45
452 474 -26.45
453 431 -14.95
453 452 -3.45
453 453 140.3
453 454 -26.45
453 475 -26.45
454 432 -14.95
454 453 -3.45
454 454 140.3
454 455 -26.45
454 476 -26.45
455 433 -14.95
455 454 -3.45
455 455 140.3
455 456 -26.45
455 477 -26.45
456 434 -14.95
456 455 -3.45
456 456 140.3
456 457 -26.45
456 478 -26.45
457 435 -14.95
457 456 -3.45
457 457 140.3
457 458 -26.45
457 479 -26.45
458 436 -14.95
458 457 -3.45
458 458 140.3
458 459 -26.45
458 480 -26.45
459 437 -14.95
459 458 -3.45
459 459 140.3
459 460 -26.45
459 481 -26.45
460 438 -14.95
460 459 -3.45
460 460 140.3
460 461 -26.45
460 482 -26.45
461 439 -14.95
461 460 -3.45
461 461 140.3
461 462 -26.45
461 483 -26.45
462 440 -14.95
462 461 -3.45
462 462 117.3
462 484 -26.45
463 441 -14.95
463 463 128.8
463 464 -26.45
464 442 -14.95
464 463 -3.45
464 464 128.8
464 465 -26.45
465 443 -14.95
465 464 -3.45
465 465 128.8
465 466 -26.45
466 444 -14.95
466 465 -3.45
466 466 128.8
466 467 -26.45
467 445 -14.95
467 466 -3.45
467 467 128.8
467 468 -26.45
468 446 -14.95
468 467 -3.45
468 468 128.8
468 469 -26.45
469 447 -14.95
469 468 -3.45
469 469 128.8
469 470 -26.45
470 448 -14.95
470 469 -3.45
470 470 128.8
470 471 -26.45
471 449 -14.95
471 470 -3.45
471 471 128.8
471 472 -26.45
472 450 -14.95
472 471 -3.45
472 472 128.8
472 473 -26.45
473 451 -14.95
473 472 -3.45
473 473 128.8
473 474 -26.45
474 452 -14.95
474 473 -3.45
474 474 128.8
474 475 -26.45
475 453 -14.95
475 474 -3.45
475 475 128.8
475 476 -26.45
476 454 -14.95
476 475 -3.45
476 476 128.8
476 477 -26.45
477 455 -14.95
477 476 -3.45
477 477 128.8
477 478 -26.45
478 456 -14.95
478 477 -3.45
478 478 128.8
478 479 -26.45
479 457 -14.95
479 478 -3.45
479 479 128.8
479 480 -26.45
480 458 -14.95
480 479 -3.45
480 480 128.8
480 481 -26.45
481 459 -14.95
481 480 -3.45
481 481 128.8
481 482 -26.45
482 460 -14.95
482 481 -3.45
482 482 128.8
482 483 -26.45
483 461 -14.95
483 482 -3.45
483 483 128.8
483 484 -26.45
484 462 -14.95
484 483 -3.45
484 484 105.8
