%%MatrixMarket matrix array real general
% Right-hand side for convdiff_upwind_484: f(x,y) = h^2 (uniform)
484 1
1.89035917e-03
1.89035917e-03
1.89035917e-03
1.89035917e-03
1.89035917e-03
1.89035917e-03
1.89035917e-03
1.89035917e-03
1.89035917e-03
1.89035917e-03
1.89035917e-03
1.89035917e-03
1.89035917e-03
1.89035917e-03
1.89035917e-03
1.89035917e-03
1.89035917e-03
1.89035917e-03
1.89035917e-03
1.89035917e-03
1.89035917e-03
1.89035917e-03
1.89035917e-03
1.89035917e-03
1.89035917e-03
1.89035917e-03
1.89035917e-03
1.89035917e-03
1.89035917e-03
1.89035917e-03
1.89035917e-03
1.89035917e-03
1.89035917e-03
1.89035917e-03
1.89035917e-03
1.89035917e-03
1.89035917e-03
1.89035917e-03
1.89035917e-03
1.89035917e-03
1.89035917e-03
1.89035917e-03
1.89035917e-03
1.89035917e-03
1.89035917e-03
1.89035917e-03
1.89035917e-03
1.89035917e-03
1.89035917e-03
1.89035917e-03
1.89035917e-03
1.89035917e-03
1.89035917e-03
1.89035917e-03
1.89035917e-03
1.89035917e-03
1.89035917e-03
1.89035917e-03
1.89035917e-03
1.89035917e-03
1.89035917e-03
1.89035917e-03
1.89035917e-03
1.89035917e-03
1.89035917e-03
1.89035917e-03
1.89035917e-03
1.89035917e-03
1.89035917e-03
1.89035917e-03
1.89035917e-03
1.89035917e-03
1.89035917e-03
1.89035917e-03
1.89035917e-03
1.89035917e-03
1.89035917e-03
1.89035917e-03
1.89035917e-03
1.89035917e-03
1.89035917e-03
1.89035917e-03
1.89035917e-03
1.89035917e-03
1.89035917e-03
1.89035917e-03
1.89035917e-03
1.89035917e-03
1.89035917e-03
1.89035917e-03
1.89035917e-03
1.89035917e-03
1.89035917e-03
1.89035917e-03
1.89035917e-03
1.89035917e-03
1.89035917e-03
1.89035917e-03
1.89035917e-03
1.89035917e-03
1.89035917e-03
1.89035917e-03
1.89035917e-03
1.89035917e-03
1.89035917e-03
1.89035917e-03
1.89035917e-03
1.89035917e-03
1.89035917e-03
1.89035917e-03
1.89035917e-03
1.89035917e-03
1.89035917e-03
1.89035917e-03
1.89035917e-03
1.89035917e-03
1.89035917e-03
1.89035917e-03
1.89035917e-03
1.89035917e-03
1.89035917e-03
1.89035917e-03
1.89035917e-03
1.89035917e-03
1.89035917e-03
1.89035917e-03
1.89035917e-03
1.89035917e-03
1.89035917e-03
1.89035917e-03
1.89035917e-03
1.89035917e-03
1.89035917e-03
1.89035917e-03
1.89035917e-03
1.89035917e-03
1.89035917e-03
1.89035917e-03
1.89035917e-03
1.89035917e-03
1.89035917e-03
1.89035917e-03
1.89035917e-03
1.89035917e-03
1.89035917e-03
1.89035917e-03
1.89035917e-03
1.89035917e-03
1.89035917e-03
1.89035917e-03
1.89035917e-03
1.89035917e-03
1.89035917e-03
1.89035917e-03
1.89035917e-03
1.89035917e-03
1.89035917e-03
1.89035917e-03
1.89035917e-03
1.89035917e-03
1.89035917e-03
1.89035917e-03
1.89035917e-03
1.89035917e-03
1.89035917e-03
1.89035917e-03
1.89035917e-03
1.89035917e-03
1.89035917e-03
1.89035917e-03
1.89035917e-03
1.89035917e-03
1.89035917e-03
1.89035917e-03
1.89035917e-03
1.89035917e-03
1.89035917e-03
1.89035917e-03
1.89035917e-03
1.89035917e-03
1.89035917e-03
1.89035917e-03
1.89035917e-03
1.89035917e-03
1.89035917e-03
1.89035917e-03
1.89035917e-03
1.89035917e-03
1.89035917e-03
1.89035917e-03
1.89035917e-03
1.89035917e-03
1.89035917e-03
1.89035917e-03
1.89035917e-03
1.89035917e-03
1.89035917e-03
1.89035917e-03
1.89035917e-03
1.89035917e-03
1.89035917e-03
1.89035917e-03
1.89035917e-03
1.89035917e-03
1.89035917e-03
1.89035917e-03
1.89035917e-03
1.89035917e-03
1.89035917e-03
1.89035917e-03
1.89035917e-03
1.89035917e-03
1.89035917e-03
1.89035917e-03
1.89035917e-03
1.89035917e-03
1.89035917e-03
1.89035917e-03
1.89035917e-03
1.89035917e-03
1.89035917e-03
1.89035917e-03
1.89035917e-03
1.89035917e-03
1.89035917e-03
1.89035917e-03
1.89035917e-03
1.89035917e-03
1.89035917e-03
1.89035917e-03
1.89035917e-03
1.89035917e-03
1.89035917e-03
1.89035917e-03
1.89035917e-03
1.89035917e-03
1.89035917e-03
1.89035917e-03
1.89035917e-03
1.89035917e-03
1.89035917e-03
1.89035917e-03
1.89035917e-03
1.89035917e-03
1.89035917e-03
1.89035917e-03
1.89035917e-03
1.89035917e-03
1.89035917e-03
1.89035917e-03
1.89035917e-03
1.89035917e-03
1.89035917e-03
1.89035917e-03
1.89035917e-03
1.89035917e-03
1.89035917e-03
1.89035917e-03
1.89035917e-03
1.89035917e-03
1.89035917e-03
1.89035917e-03
1.89035917e-03
1.89035917e-03
1.89035917e-03
1.89035917e-03
1.89035917e-03
1.89035917e-03
1.89035917e-03
1.89035917e-03
1.89035917e-03
1.89035917e-03
1.89035917e-03
1.89035917e-03
1.89035917e-03
1.89035917e-03
1.89035917e-03
1.89035917e-03
1.89035917e-03
1.89035917e-03
1.89035917e-03
1.89035917e-03
1.89035917e-03
1.89035917e-03
1.89035917e-03
1.89035917e-03
1.89035917e-03
1.89035917e-03
1.89035917e-03
1.89035917e-03
1.89035917e-03
1.89035917e-03
1.89035917e-03
1.89035917e-03
1.89035917e-03
1.89035917e-03
1.89035917e-03
1.89035917e-03
1.89035917e-03
1.89035917e-03
1.89035917e-03
1.89035917e-03
1.89035917e-03
1.89035917e-03
1.89035917e-03
1.89035917e-03
1.89035917e-03
1.89035917e-03
1.89035917e-03
1.89035917e-03
1.89035917e-03
1.89035917e-03
1.89035917e-03
1.89035917e-03
1.89035917e-03
1.89035917e-03
1.89035917e-03
1.89035917e-03
1.89035917e-03
1.89035917e-03
1.89035917e-03
1.89035917e-03
1.89035917e-03
1.89035917e-03
1.89035917e-03
1.89035917e-03
1.89035917e-03
1.89035917e-03
1.89035917e-03
1.89035917e-03
1.89035917e-03
1.89035917e-03
1.89035917e-03
1.89035917e-03
1.89035917e-03
1.89035917e-03
1.89035917e-03
1.89035917e-03
1.89035917e-03
1.89035917e-03
1.89035917e-03
1.89035917e-03
1.89035917e-03
1.89035917e-03
1.89035917e-03
1.89035917e-03
1.89035917e-03
1.89035917e-03
1.89035917e-03
1.89035917e-03
1.89035917e-03
1.89035917e-03
1.89035917e-03
1.89035917e-03
1.89035917e-03
1.89035917e-03
1.89035917e-03
1.89035917e-03
1.89035917e-03
1.89035917e-03
1.89035917e-03
1.89035917e-03
1.89035917e-03
1.89035917e-03
1.89035917e-03
1.89035917e-03
1.89035917e-03
1.89035917e-03
1.89035917e-03
1.89035917e-03
1.89035917e-03
1.89035917e-03
1.89035917e-03
1.89035917e-03
1.89035917e-03
1.89035917e-03
1.89035917e-03
1.89035917e-03
1.89035917e-03
1.89035917e-03
1.89035917e-03
1.89035917e-03
1.89035917e-03
1.89035917e-03
1.89035917e-03
1.89035917e-03
1.89035917e-03
1.89035917e-03
1.89035917e-03
1.89035917e-03
1.89035917e-03
1.89035917e-03
1.89035917e-03
1.89035917e-03
1.89035917e-03
1.89035917e-03
1.89035917e-03
1.89035917e-03
1.89035917e-03
1.89035917e-03
1.89035917e-03
1.89035917e-03
1.89035917e-03
1.89035917e-03
1.89035917e-03
1.89035917e-03
1.89035917e-03
1.89035917e-03
1.89035917e-03
1.89035917e-03
1.89035917e-03
1.89035917e-03
1.89035917e-03
1.89035917e-03
1.89035917e-03
1.89035917e-03
1.89035917e-03
1.89035917e-03
1.89035917e-03
1.89035917e-03
1.89035917e-03
1.89035917e-03
1.89035917e-03
1.89035917e-03
1.89035917e-03
1.89035917e-03
1.89035917e-03
1.89035917e-03
1.89035917e-03
1.89035917e-03
1.89035917e-03
1.89035917e-03
1.89035917e-03
1.89035917e-03
1.89035917e-03
1.89035917e-03
1.89035917e-03
1.89035917e-03
1.89035917e-03
1.89035917e-03
1.89035917e-03
1.89035917e-03
1.89035917e-03
1.89035917e-03
1.89035917e-03
1.89035917e-03
1.89035917e-03
1.89035917e-03
1.89035917e-03
1.89035917e-03
1.89035917e-03
1.89035917e-03
1.89035917e-03
1.89035917e-03
1.89035917e-03
1.89035917e-03
1.89035917e-03
1.89035917e-03
1.89035917e-03
1.89035917e-03
1.89035917e-03
1.89035917e-03
1.89035917e-03
1.89035917e-03
1.89035917e-03
1.89035917e-03
1.89035917e-03
1.89035917e-03
1.89035917e-03
1.89035917e-03
1.89035917e-03
1.89035917e-03
1.89035917e-03
1.89035917e-03
1.89035917e-03
1.89035917e-03
1.89035917e-03
1.89035917e-03
1.89035917e-03
1.89035917e-03
1.89035917e-03
1.89035917e-03
1.89035917e-03
1.89035917e-03
