%%MatrixMarket matrix coordinate real general
% helmholtz_400
% Helmholtz -Delta u - k^2 u = f, k=2.5, 20x20 grid. Indefinite. Non-SPD.
400 400 1920
1 1 3.98583
1 2 -1
1 21 -1
2 1 -1
2 2 3.98583
2 3 -1
2 22 -1
3 2 -1
3 3 3.98583
3 4 -1
3 23 -1
4 3 -1
4 4 3.98583
4 5 -1
4 24 -1
5 4 -1
5 5 3.98583
5 6 -1
5 25 -1
6 5 -1
6 6 3.98583
6 7 -1
6 26 -1
7 6 -1
7 7 3.98583
7 8 -1
7 27 -1
8 7 -1
8 8 3.98583
8 9 -1
8 28 -1
9 8 -1
9 9 3.98583
9 10 -1
9 29 -1
10 9 -1
10 10 3.98583
10 11 -1
10 30 -1
11 10 -1
11 11 3.98583
11 12 -1
11 31 -1
12 11 -1
12 12 3.98583
12 13 -1
12 32 -1
13 12 -1
13 13 3.98583
13 14 -1
13 33 -1
14 13 -1
14 14 3.98583
14 15 -1
14 34 -1
15 14 -1
15 15 3.98583
15 16 -1
15 35 -1
16 15 -1
16 16 3.98583
16 17 -1
16 36 -1
17 16 -1
17 17 3.98583
17 18 -1
17 37 -1
18 17 -1
18 18 3.98583
18 19 -1
18 38 -1
19 18 -1
19 19 3.98583
19 20 -1
19 39 -1
20 19 -1
20 20 3.98583
20 40 -1
21 1 -1
21 21 3.98583
21 22 -1
21 41 -1
22 2 -1
22 21 -1
22 22 3.98583
22 23 -1
22 42 -1
23 3 -1
23 22 -1
23 23 3.98583
23 24 -1
23 43 -1
24 4 -1
24 23 -1
24 24 3.98583
24 25 -1
24 44 -1
25 5 -1
25 24 -1
25 25 3.98583
25 26 -1
25 45 -1
26 6 -1
26 25 -1
26 26 3.98583
26 27 -1
26 46 -1
27 7 -1
27 26 -1
27 27 3.98583
27 28 -1
27 47 -1
28 8 -1
28 27 -1
28 28 3.98583
28 29 -1
28 48 -1
29 9 -1
29 28 -1
29 29 3.98583
29 30 -1
29 49 -1
30 10 -1
30 29 -1
30 30 3.98583
30 31 -1
30 50 -1
31 11 -1
31 30 -1
31 31 3.98583
31 32 -1
31 51 -1
32 12 -1
32 31 -1
32 32 3.98583
32 33 -1
32 52 -1
33 13 -1
33 32 -1
33 33 3.98583
33 34 -1
33 53 -1
34 14 -1
34 33 -1
34 34 3.98583
34 35 -1
34 54 -1
35 15 -1
35 34 -1
35 35 3.98583
35 36 -1
35 55 -1
36 16 -1
36 35 -1
36 36 3.98583
36 37 -1
36 56 -1
37 17 -1
37 36 -1
37 37 3.98583
37 38 -1
37 57 -1
38 18 -1
38 37 -1
38 38 3.98583
38 39 -1
38 58 -1
39 19 -1
39 38 -1
39 39 3.98583
39 40 -1
39 59 -1
40 20 -1
40 39 -1
40 40 3.98583
40 60 -1
41 21 -1
41 41 3.98583
41 42 -1
41 61 -1
42 22 -1
42 41 -1
42 42 3.98583
42 43 -1
42 62 -1
43 23 -1
43 42 -1
43 43 3.98583
43 44 -1
43 63 -1
44 24 -1
44 43 -1
44 44 3.98583
44 45 -1
44 64 -1
45 25 -1
45 44 -1
45 45 3.98583
45 46 -1
45 65 -1
46 26 -1
46 45 -1
46 46 3.98583
46 47 -1
46 66 -1
47 27 -1
47 46 -1
47 47 3.98583
47 48 -1
47 67 -1
48 28 -1
48 47 -1
48 48 3.98583
48 49 -1
48 68 -1
49 29 -1
49 48 -1
49 49 3.98583
49 50 -1
49 69 -1
50 30 -1
50 49 -1
50 50 3.98583
50 51 -1
50 70 -1
51 31 -1
51 50 -1
51 51 3.98583
51 52 -1
51 71 -1
52 32 -1
52 51 -1
52 52 3.98583
52 53 -1
52 72 -1
53 33 -1
53 52 -1
53 53 3.98583
53 54 -1
53 73 -1
54 34 -1
54 53 -1
54 54 3.98583
54 55 -1
54 74 -1
55 35 -1
55 54 -1
55 55 3.98583
55 56 -1
55 75 -1
56 36 -1
56 55 -1
56 56 3.98583
56 57 -1
56 76 -1
57 37 -1
57 56 -1
57 57 3.98583
57 58 -1
57 77 -1
58 38 -1
58 57 -1
58 58 3.98583
58 59 -1
58 78 -1
59 39 -1
59 58 -1
59 59 3.98583
59 60 -1
59 79 -1
60 40 -1
60 59 -1
60 60 3.98583
60 80 -1
61 41 -1
61 61 3.98583
61 62 -1
61 81 -1
62 42 -1
62 61 -1
62 62 3.98583
62 63 -1
62 82 -1
63 43 -1
63 62 -1
63 63 3.98583
63 64 -1
63 83 -1
64 44 -1
64 63 -1
64 64 3.98583
64 65 -1
64 84 -1
65 45 -1
65 64 -1
65 65 3.98583
65 66 -1
65 85 -1
66 46 -1
66 65 -1
66 66 3.98583
66 67 -1
66 86 -1
67 47 -1
67 66 -1
67 67 3.98583
67 68 -1
67 87 -1
68 48 -1
68 67 -1
68 68 3.98583
68 69 -1
68 88 -1
69 49 -1
69 68 -1
69 69 3.98583
69 70 -1
69 89 -1
70 50 -1
70 69 -1
70 70 3.98583
70 71 -1
70 90 -1
71 51 -1
71 70 -1
71 71 3.98583
71 72 -1
71 91 -1
72 52 -1
72 71 -1
72 72 3.98583
72 73 -1
72 92 -1
73 53 -1
73 72 -1
73 73 3.98583
73 74 -1
73 93 -1
74 54 -1
74 73 -1
74 74 3.98583
74 75 -1
74 94 -1
75 55 -1
75 74 -1
75 75 3.98583
75 76 -1
75 95 -1
76 56 -1
76 75 -1
76 76 3.98583
76 77 -1
76 96 -1
77 57 -1
77 76 -1
77 77 3.98583
77 78 -1
77 97 -1
78 58 -1
78 77 -1
78 78 3.98583
78 79 -1
78 98 -1
79 59 -1
79 78 -1
79 79 3.98583
79 80 -1
79 99 -1
80 60 -1
80 79 -1
80 80 3.98583
80 100 -1
81 61 -1
81 81 3.98583
81 82 -1
81 101 -1
82 62 -1
82 81 -1
82 82 3.98583
82 83 -1
82 102 -1
83 63 -1
83 82 -1
83 83 3.98583
83 84 -1
83 103 -1
84 64 -1
84 83 -1
84 84 3.98583
84 85 -1
84 104 -1
85 65 -1
85 84 -1
85 85 3.98583
85 86 -1
85 105 -1
86 66 -1
86 85 -1
86 86 3.98583
86 87 -1
86 106 -1
87 67 -1
87 86 -1
87 87 3.98583
87 88 -1
87 107 -1
88 68 -1
88 87 -1
88 88 3.98583
88 89 -1
88 108 -1
89 69 -1
89 88 -1
89 89 3.98583
89 90 -1
89 109 -1
90 70 -1
90 89 -1
90 90 3.98583
90 91 -1
90 110 -1
91 71 -1
91 90 -1
91 91 3.98583
91 92 -1
91 111 -1
92 72 -1
92 91 -1
92 92 3.98583
92 93 -1
92 112 -1
93 73 -1
93 92 -1
93 93 3.98583
93 94 -1
93 113 -1
94 74 -1
94 93 -1
94 94 3.98583
94 95 -1
94 114 -1
95 75 -1
95 94 -1
95 95 3.98583
95 96 -1
95 115 -1
96 76 -1
96 95 -1
96 96 3.98583
96 97 -1
96 116 -1
97 77 -1
97 96 -1
97 97 3.98583
97 98 -1
97 117 -1
98 78 -1
98 97 -1
98 98 3.98583
98 99 -1
98 118 -1
99 79 -1
99 98 -1
99 99 3.98583
99 100 -1
99 119 -1
100 80 -1
100 99 -1
100 100 3.98583
100 120 -1
101 81 -1
101 101 3.98583
101 102 -1
101 121 -1
102 82 -1
102 101 -1
102 102 3.98583
102 103 -1
102 122 -1
103 83 -1
103 102 -1
103 103 3.98583
103 104 -1
103 123 -1
104 84 -1
104 103 -1
104 104 3.98583
104 105 -1
104 124 -1
105 85 -1
105 104 -1
105 105 3.98583
105 106 -1
105 125 -1
106 86 -1
106 105 -1
106 106 3.98583
106 107 -1
106 126 -1
107 87 -1
107 106 -1
107 107 3.98583
107 108 -1
107 127 -1
108 88 -1
108 107 -1
108 108 3.98583
108 109 -1
108 128 -1
109 89 -1
109 108 -1
109 109 3.98583
109 110 -1
109 129 -1
110 90 -1
110 109 -1
110 110 3.98583
110 111 -1
110 130 -1
111 91 -1
111 110 -1
111 111 3.98583
111 112 -1
111 131 -1
112 92 -1
112 111 -1
112 112 3.98583
112 113 -1
112 132 -1
113 93 -1
113 112 -1
113 113 3.98583
113 114 -1
113 133 -1
114 94 -1
114 113 -1
114 114 3.98583
114 115 -1
114 134 -1
115 95 -1
115 114 -1
115 115 3.98583
115 116 -1
115 135 -1
116 96 -1
116 115 -1
116 116 3.98583
116 117 -1
116 136 -1
117 97 -1
117 116 -1
117 117 3.98583
117 118 -1
117 137 -1
118 98 -1
118 117 -1
118 118 3.98583
118 119 -1
118 138 -1
119 99 -1
119 118 -1
119 119 3.98583
119 120 -1
119 139 -1
120 100 -1
120 119 -1
120 120 3.98583
120 140 -1
121 101 -1
121 121 3.98583
121 122 -1
121 141 -1
122 102 -1
122 121 -1
122 122 3.98583
122 123 -1
122 142 -1
123 103 -1
123 122 -1
123 123 3.98583
123 124 -1
123 143 -1
124 104 -1
124 123 -1
124 124 3.98583
124 125 -1
124 144 -1
125 105 -1
125 124 -1
125 125 3.98583
125 126 -1
125 145 -1
126 106 -1
126 125 -1
126 126 3.98583
126 127 -1
126 146 -1
127 107 -1
127 126 -1
127 127 3.98583
127 128 -1
127 147 -1
128 108 -1
128 127 -1
128 128 3.98583
128 129 -1
128 148 -1
129 109 -1
129 128 -1
129 129 3.98583
129 130 -1
129 149 -1
130 110 -1
130 129 -1
130 130 3.98583
130 131 -1
130 150 -1
131 111 -1
131 130 -1
131 131 3.98583
131 132 -1
131 151 -1
132 112 -1
132 131 -1
132 132 3.98583
132 133 -1
132 152 -1
133 113 -1
133 132 -1
133 133 3.98583
133 134 -1
133 153 -1
134 114 -1
134 133 -1
134 134 3.98583
134 135 -1
134 154 -1
135 115 -1
135 134 -1
135 135 3.98583
135 136 -1
135 155 -1
136 116 -1
136 135 -1
136 136 3.98583
136 137 -1
136 156 -1
137 117 -1
137 136 -1
137 137 3.98583
137 138 -1
137 157 -1
138 118 -1
138 137 -1
138 138 3.98583
138 139 -1
138 158 -1
139 119 -1
139 138 -1
139 139 3.98583
139 140 -1
139 159 -1
140 120 -1
140 139 -1
140 140 3.98583
140 160 -1
141 121 -1
141 141 3.98583
141 142 -1
141 161 -1
142 122 -1
142 141 -1
142 142 3.98583
142 143 -1
142 162 -1
143 123 -1
143 142 -1
143 143 3.98583
143 144 -1
143 163 -1
144 124 -1
144 143 -1
144 144 3.98583
144 145 -1
144 164 -1
145 125 -1
145 144 -1
145 145 3.98583
145 146 -1
145 165 -1
146 126 -1
146 145 -1
146 146 3.98583
146 147 -1
146 166 -1
147 127 -1
147 146 -1
147 147 3.98583
147 148 -1
147 167 -1
148 128 -1
148 147 -1
148 148 3.98583
148 149 -1
148 168 -1
149 129 -1
149 148 -1
149 149 3.98583
149 150 -1
149 169 -1
150 130 -1
150 149 -1
150 150 3.98583
150 151 -1
150 170 -1
151 131 -1
151 150 -1
151 151 3.98583
151 152 -1
151 171 -1
152 132 -1
152 151 -1
152 152 3.98583
152 153 -1
152 172 -1
153 133 -1
153 152 -1
153 153 3.98583
153 154 -1
153 173 -1
154 134 -1
154 153 -1
154 154 3.98583
154 155 -1
154 174 -1
155 135 -1
155 154 -1
155 155 3.98583
155 156 -1
155 175 -1
156 136 -1
156 155 -1
156 156 3.98583
156 157 -1
156 176 -1
157 137 -1
157 156 -1
157 157 3.98583
157 158 -1
157 177 -1
158 138 -1
158 157 -1
158 158 3.98583
158 159 -1
158 178 -1
159 139 -1
159 158 -1
159 159 3.98583
159 160 -1
159 179 -1
160 140 -1
160 159 -1
160 160 3.98583
160 180 -1
161 141 -1
161 161 3.98583
161 162 -1
161 181 -1
162 142 -1
162 161 -1
162 162 3.98583
162 163 -1
162 182 -1
163 143 -1
163 162 -1
163 163 3.98583
163 164 -1
163 183 -1
164 144 -1
164 163 -1
164 164 3.98583
164 165 -1
164 184 -1
165 145 -1
165 164 -1
165 165 3.98583
165 166 -1
165 185 -1
166 146 -1
166 165 -1
166 166 3.98583
166 167 -1
166 186 -1
167 147 -1
167 166 -1
167 167 3.98583
167 168 -1
167 187 -1
168 148 -1
168 167 -1
168 168 3.98583
168 169 -1
168 188 -1
169 149 -1
169 168 -1
169 169 3.98583
169 170 -1
169 189 -1
170 150 -1
170 169 -1
170 170 3.98583
170 171 -1
170 190 -1
171 151 -1
171 170 -1
171 171 3.98583
171 172 -1
171 191 -1
172 152 -1
172 171 -1
172 172 3.98583
172 173 -1
172 192 -1
173 153 -1
173 172 -1
173 173 3.98583
173 174 -1
173 193 -1
174 154 -1
174 173 -1
174 174 3.98583
174 175 -1
174 194 -1
175 155 -1
175 174 -1
175 175 3.98583
175 176 -1
175 195 -1
176 156 -1
176 175 -1
176 176 3.98583
176 177 -1
176 196 -1
177 157 -1
177 176 -1
177 177 3.98583
177 178 -1
177 197 -1
178 158 -1
178 177 -1
178 178 3.98583
178 179 -1
178 198 -1
179 159 -1
179 178 -1
179 179 3.98583
179 180 -1
179 199 -1
180 160 -1
180 179 -1
180 180 3.98583
180 200 -1
181 161 -1
181 181 3.98583
181 182 -1
181 201 -1
182 162 -1
182 181 -1
182 182 3.98583
182 183 -1
182 202 -1
183 163 -1
183 182 -1
183 183 3.98583
183 184 -1
183 203 -1
184 164 -1
184 183 -1
184 184 3.98583
184 185 -1
184 204 -1
185 165 -1
185 184 -1
185 185 3.98583
185 186 -1
185 205 -1
186 166 -1
186 185 -1
186 186 3.98583
186 187 -1
186 206 -1
187 167 -1
187 186 -1
187 187 3.98583
187 188 -1
187 207 -1
188 168 -1
188 187 -1
188 188 3.98583
188 189 -1
188 208 -1
189 169 -1
189 188 -1
189 189 3.98583
189 190 -1
189 209 -1
190 170 -1
190 189 -1
190 190 3.98583
190 191 -1
190 210 -1
191 171 -1
191 190 -1
191 191 3.98583
191 192 -1
191 211 -1
192 172 -1
192 191 -1
192 192 3.98583
192 193 -1
192 212 -1
193 173 -1
193 192 -1
193 193 3.98583
193 194 -1
193 213 -1
194 174 -1
194 193 -1
194 194 3.98583
194 195 -1
194 214 -1
195 175 -1
195 194 -1
195 195 3.98583
195 196 -1
195 215 -1
196 176 -1
196 195 -1
196 196 3.98583
196 197 -1
196 216 -1
197 177 -1
197 196 -1
197 197 3.98583
197 198 -1
197 217 -1
198 178 -1
198 197 -1
198 198 3.98583
198 199 -1
198 218 -1
199 179 -1
199 198 -1
199 199 3.98583
199 200 -1
199 219 -1
200 180 -1
200 199 -1
200 200 3.98583
200 220 -1
201 181 -1
201 201 3.98583
201 202 -1
201 221 -1
202 182 -1
202 201 -1
202 202 3.98583
202 203 -1
202 222 -1
203 183 -1
203 202 -1
203 203 3.98583
203 204 -1
203 223 -1
204 184 -1
204 203 -1
204 204 3.98583
204 205 -1
204 224 -1
205 185 -1
205 204 -1
205 205 3.98583
205 206 -1
205 225 -1
206 186 -1
206 205 -1
206 206 3.98583
206 207 -1
206 226 -1
207 187 -1
207 206 -1
207 207 3.98583
207 208 -1
207 227 -1
208 188 -1
208 207 -1
208 208 3.98583
208 209 -1
208 228 -1
209 189 -1
209 208 -1
209 209 3.98583
209 210 -1
209 229 -1
210 190 -1
210 209 -1
210 210 3.98583
210 211 -1
210 230 -1
211 191 -1
211 210 -1
211 211 3.98583
211 212 -1
211 231 -1
212 192 -1
212 211 -1
212 212 3.98583
212 213 -1
212 232 -1
213 193 -1
213 212 -1
213 213 3.98583
213 214 -1
213 233 -1
214 194 -1
214 213 -1
214 214 3.98583
214 215 -1
214 234 -1
215 195 -1
215 214 -1
215 215 3.98583
215 216 -1
215 235 -1
216 196 -1
216 215 -1
216 216 3.98583
216 217 -1
216 236 -1
217 197 -1
217 216 -1
217 217 3.98583
217 218 -1
217 237 -1
218 198 -1
218 217 -1
218 218 3.98583
218 219 -1
218 238 -1
219 199 -1
219 218 -1
219 219 3.98583
219 220 -1
219 239 -1
220 200 -1
220 219 -1
220 220 3.98583
220 240 -1
221 201 -1
221 221 3.98583
221 222 -1
221 241 -1
222 202 -1
222 221 -1
222 222 3.98583
222 223 -1
222 242 -1
223 203 -1
223 222 -1
223 223 3.98583
223 224 -1
223 243 -1
224 204 -1
224 223 -1
224 224 3.98583
224 225 -1
224 244 -1
225 205 -1
225 224 -1
225 225 3.98583
225 226 -1
225 245 -1
226 206 -1
226 225 -1
226 226 3.98583
226 227 -1
226 246 -1
227 207 -1
227 226 -1
227 227 3.98583
227 228 -1
227 247 -1
228 208 -1
228 227 -1
228 228 3.98583
228 229 -1
228 248 -1
229 209 -1
229 228 -1
229 229 3.98583
229 230 -1
229 249 -1
230 210 -1
230 229 -1
230 230 3.98583
230 231 -1
230 250 -1
231 211 -1
231 230 -1
231 231 3.98583
231 232 -1
231 251 -1
232 212 -1
232 231 -1
232 232 3.98583
232 233 -1
232 252 -1
233 213 -1
233 232 -1
233 233 3.98583
233 234 -1
233 253 -1
234 214 -1
234 233 -1
234 234 3.98583
234 235 -1
234 254 -1
235 215 -1
235 234 -1
235 235 3.98583
235 236 -1
235 255 -1
236 216 -1
236 235 -1
236 236 3.98583
236 237 -1
236 256 -1
237 217 -1
237 236 -1
237 237 3.98583
237 238 -1
237 257 -1
238 218 -1
238 237 -1
238 238 3.98583
238 239 -1
238 258 -1
239 219 -1
239 238 -1
239 239 3.98583
239 240 -1
239 259 -1
240 220 -1
240 239 -1
240 240 3.98583
240 260 -1
241 221 -1
241 241 3.98583
241 242 -1
241 261 -1
242 222 -1
242 241 -1
242 242 3.98583
242 243 -1
242 262 -1
243 223 -1
243 242 -1
243 243 3.98583
243 244 -1
243 263 -1
244 224 -1
244 243 -1
244 244 3.98583
244 245 -1
244 264 -1
245 225 -1
245 244 -1
245 245 3.98583
245 246 -1
245 265 -1
246 226 -1
246 245 -1
246 246 3.98583
246 247 -1
246 266 -1
247 227 -1
247 246 -1
247 247 3.98583
247 248 -1
247 267 -1
248 228 -1
248 247 -1
248 248 3.98583
248 249 -1
248 268 -1
249 229 -1
249 248 -1
249 249 3.98583
249 250 -1
249 269 -1
250 230 -1
250 249 -1
250 250 3.98583
250 251 -1
250 270 -1
251 231 -1
251 250 -1
251 251 3.98583
251 252 -1
251 271 -1
252 232 -1
252 251 -1
252 252 3.98583
252 253 -1
252 272 -1
253 233 -1
253 252 -1
253 253 3.98583
253 254 -1
253 273 -1
254 234 -1
254 253 -1
254 254 3.98583
254 255 -1
254 274 -1
255 235 -1
255 254 -1
255 255 3.98583
255 256 -1
255 275 -1
256 236 -1
256 255 -1
256 256 3.98583
256 257 -1
256 276 -1
257 237 -1
257 256 -1
257 257 3.98583
257 258 -1
257 277 -1
258 238 -1
258 257 -1
258 258 3.98583
258 259 -1
258 278 -1
259 239 -1
259 258 -1
259 259 3.98583
259 260 -1
259 279 -1
260 240 -1
260 259 -1
260 260 3.98583
260 280 -1
261 241 -1
261 261 3.98583
261 262 -1
261 281 -1
262 242 -1
262 261 -1
262 262 3.98583
262 263 -1
262 282 -1
263 243 -1
263 262 -1
263 263 3.98583
263 264 -1
263 283 -1
264 244 -1
264 263 -1
264 264 3.98583
264 265 -1
264 284 -1
265 245 -1
265 264 -1
265 265 3.98583
265 266 -1
265 285 -1
266 246 -1
266 265 -1
266 266 3.98583
266 267 -1
266 286 -1
267 247 -1
267 266 -1
267 267 3.98583
267 268 -1
267 287 -1
268 248 -1
268 267 -1
268 268 3.98583
268 269 -1
268 288 -1
269 249 -1
269 268 -1
269 269 3.98583
269 270 -1
269 289 -1
270 250 -1
270 269 -1
270 270 3.98583
270 271 -1
270 290 -1
271 251 -1
271 270 -1
271 271 3.98583
271 272 -1
271 291 -1
272 252 -1
272 271 -1
272 272 3.98583
272 273 -1
272 292 -1
273 253 -1
273 272 -1
273 273 3.98583
273 274 -1
273 293 -1
274 254 -1
274 273 -1
274 274 3.98583
274 275 -1
274 294 -1
275 255 -1
275 274 -1
275 275 3.98583
275 276 -1
275 295 -1
276 256 -1
276 275 -1
276 276 3.98583
276 277 -1
276 296 -1
277 257 -1
277 276 -1
277 277 3.98583
277 278 -1
277 297 -1
278 258 -1
278 277 -1
278 278 3.98583
278 279 -1
278 298 -1
279 259 -1
279 278 -1
279 279 3.98583
279 280 -1
279 299 -1
280 260 -1
280 279 -1
280 280 3.98583
280 300 -1
281 261 -1
281 281 3.98583
281 282 -1
281 301 -1
282 262 -1
282 281 -1
282 282 3.98583
282 283 -1
282 302 -1
283 263 -1
283 282 -1
283 283 3.98583
283 284 -1
283 303 -1
284 264 -1
284 283 -1
284 284 3.98583
284 285 -1
284 304 -1
285 265 -1
285 284 -1
285 285 3.98583
285 286 -1
285 305 -1
286 266 -1
286 285 -1
286 286 3.98583
286 287 -1
286 306 -1
287 267 -1
287 286 -1
287 287 3.98583
287 288 -1
287 307 -1
288 268 -1
288 287 -1
288 288 3.98583
288 289 -1
288 308 -1
289 269 -1
289 288 -1
289 289 3.98583
289 290 -1
289 309 -1
290 270 -1
290 289 -1
290 290 3.98583
290 291 -1
290 310 -1
291 271 -1
291 290 -1
291 291 3.98583
291 292 -1
291 311 -1
292 272 -1
292 291 -1
292 292 3.98583
292 293 -1
292 312 -1
293 273 -1
293 292 -1
293 293 3.98583
293 294 -1
293 313 -1
294 274 -1
294 293 -1
294 294 3.98583
294 295 -1
294 314 -1
295 275 -1
295 294 -1
295 295 3.98583
295 296 -1
295 315 -1
296 276 -1
296 295 -1
296 296 3.98583
296 297 -1
296 316 -1
297 277 -1
297 296 -1
297 297 3.98583
297 298 -1
297 317 -1
298 278 -1
298 297 -1
298 298 3.98583
298 299 -1
298 318 -1
299 279 -1
299 298 -1
299 299 3.98583
299 300 -1
299 319 -1
300 280 -1
300 299 -1
300 300 3.98583
300 320 -1
301 281 -1
301 301 3.98583
301 302 -1
301 321 -1
302 282 -1
302 301 -1
302 302 3.98583
302 303 -1
302 322 -1
303 283 -1
303 302 -1
303 303 3.98583
303 304 -1
303 323 -1
304 284 -1
304 303 -1
304 304 3.98583
304 305 -1
304 324 -1
305 285 -1
305 304 -1
305 305 3.98583
305 306 -1
305 325 -1
306 286 -1
306 305 -1
306 306 3.98583
306 307 -1
306 326 -1
307 287 -1
307 306 -1
307 307 3.98583
307 308 -1
307 327 -1
308 288 -1
308 307 -1
308 308 3.98583
308 309 -1
308 328 -1
309 289 -1
309 308 -1
309 309 3.98583
309 310 -1
309 329 -1
310 290 -1
310 309 -1
310 310 3.98583
310 311 -1
310 330 -1
311 291 -1
311 310 -1
311 311 3.98583
311 312 -1
311 331 -1
312 292 -1
312 311 -1
312 312 3.98583
312 313 -1
312 332 -1
313 293 -1
313 312 -1
313 313 3.98583
313 314 -1
313 333 -1
314 294 -1
314 313 -1
314 314 3.98583
314 315 -1
314 334 -1
315 295 -1
315 314 -1
315 315 3.98583
315 316 -1
315 335 -1
316 296 -1
316 315 -1
316 316 3.98583
316 317 -1
316 336 -1
317 297 -1
317 316 -1
317 317 3.98583
317 318 -1
317 337 -1
318 298 -1
318 317 -1
318 318 3.98583
318 319 -1
318 338 -1
319 299 -1
319 318 -1
319 319 3.98583
319 320 -1
319 339 -1
320 300 -1
320 319 -1
320 320 3.98583
320 340 -1
321 301 -1
321 321 3.98583
321 322 -1
321 341 -1
322 302 -1
322 321 -1
322 322 3.98583
322 323 -1
322 342 -1
323 303 -1
323 322 -1
323 323 3.98583
323 324 -1
323 343 -1
324 304 -1
324 323 -1
324 324 3.98583
324 325 -1
324 344 -1
325 305 -1
325 324 -1
325 325 3.98583
325 326 -1
325 345 -1
326 306 -1
326 325 -1
326 326 3.98583
326 327 -1
326 346 -1
327 307 -1
327 326 -1
327 327 3.98583
327 328 -1
327 347 -1
328 308 -1
328 327 -1
328 328 3.98583
328 329 -1
328 348 -1
329 309 -1
329 328 -1
329 329 3.98583
329 330 -1
329 349 -1
330 310 -1
330 329 -1
330 330 3.98583
330 331 -1
330 350 -1
331 311 -1
331 330 -1
331 331 3.98583
331 332 -1
331 351 -1
332 312 -1
332 331 -1
332 332 3.98583
332 333 -1
332 352 -1
333 313 -1
333 332 -1
333 333 3.98583
333 334 -1
333 353 -1
334 314 -1
334 333 -1
334 334 3.98583
334 335 -1
334 354 -1
335 315 -1
335 334 -1
335 335 3.98583
335 336 -1
335 355 -1
336 316 -1
336 335 -1
336 336 3.98583
336 337 -1
336 356 -1
337 317 -1
337 336 -1
337 337 3.98583
337 338 -1
337 357 -1
338 318 -1
338 337 -1
338 338 3.98583
338 339 -1
338 358 -1
339 319 -1
339 338 -1
339 339 3.98583
339 340 -1
339 359 -1
340 320 -1
340 339 -1
340 340 3.98583
340 360 -1
341 321 -1
341 341 3.98583
341 342 -1
341 361 -1
342 322 -1
342 341 -1
342 342 3.98583
342 343 -1
342 362 -1
343 323 -1
343 342 -1
343 343 3.98583
343 344 -1
343 363 -1
344 324 -1
344 343 -1
344 344 3.98583
344 345 -1
344 364 -1
345 325 -1
345 344 -1
345 345 3.98583
345 346 -1
345 365 -1
346 326 -1
346 345 -1
346 346 3.98583
346 347 -1
346 366 -1
347 327 -1
347 346 -1
347 347 3.98583
347 348 -1
347 367 -1
348 328 -1
348 347 -1
348 348 3.98583
348 349 -1
348 368 -1
349 329 -1
349 348 -1
349 349 3.98583
349 350 -1
349 369 -1
350 330 -1
350 349 -1
350 350 3.98583
350 351 -1
350 370 -1
351 331 -1
351 350 -1
351 351 3.98583
351 352 -1
351 371 -1
352 332 -1
352 351 -1
352 352 3.98583
352 353 -1
352 372 -1
353 333 -1
353 352 -1
353 353 3.98583
353 354 -1
353 373 -1
354 334 -1
354 353 -1
354 354 3.98583
354 355 -1
354 374 -1
355 335 -1
355 354 -1
355 355 3.98583
355 356 -1
355 375 -1
356 336 -1
356 355 -1
356 356 3.98583
356 357 -1
356 376 -1
357 337 -1
357 356 -1
357 357 3.98583
357 358 -1
357 377 -1
358 338 -1
358 357 -1
358 358 3.98583
358 359 -1
358 378 -1
359 339 -1
359 358 -1
359 359 3.98583
359 360 -1
359 379 -1
360 340 -1
360 359 -1
360 360 3.98583
360 380 -1
361 341 -1
361 361 3.98583
361 362 -1
361 381 -1
362 342 -1
362 361 -1
362 362 3.98583
362 363 -1
362 382 -1
363 343 -1
363 362 -1
363 363 3.98583
363 364 -1
363 383 -1
364 344 -1
364 363 -1
364 364 3.98583
364 365 -1
364 384 -1
365 345 -1
365 364 -1
365 365 3.98583
365 366 -1
365 385 -1
366 346 -1
366 365 -1
366 366 3.98583
366 367 -1
366 386 -1
367 347 -1
367 366 -1
367 367 3.98583
367 368 -1
367 387 -1
368 348 -1
368 367 -1
368 368 3.98583
368 369 -1
368 388 -1
369 349 -1
369 368 -1
369 369 3.98583
369 370 -1
369 389 -1
370 350 -1
370 369 -1
370 370 3.98583
370 371 -1
370 390 -1
371 351 -1
371 370 -1
371 371 3.98583
371 372 -1
371 391 -1
372 352 -1
372 371 -1
372 372 3.98583
372 373 -1
372 392 -1
373 353 -1
373 372 -1
373 373 3.98583
373 374 -1
373 393 -1
374 354 -1
374 373 -1
374 374 3.98583
374 375 -1
374 394 -1
375 355 -1
375 374 -1
375 375 3.98583
375 376 -1
375 395 -1
376 356 -1
376 375 -1
376 376 3.98583
376 377 -1
376 396 -1
377 357 -1
377 376 -1
377 377 3.98583
377 378 -1
377 397 -1
378 358 -1
378 377 -1
378 378 3.98583
378 379 -1
378 398 -1
379 359 -1
379 378 -1
379 379 3.98583
379 380 -1
379 399 -1
380 360 -1
380 379 -1
380 380 3.98583
380 400 -1
381 361 -1
381 381 3.98583
381 382 -1
382 362 -1
382 381 -1
382 382 3.98583
382 383 -1
383 363 -1
383 382 -1
383 383 3.98583
383 384 -1
384 364 -1
384 383 -1
384 384 3.98583
384 385 -1
385 365 -1
385 384 -1
385 385 3.98583
385 386 -1
386 366 -1
386 385 -1
386 386 3.98583
386 387 -1
387 367 -1
387 386 -1
387 387 3.98583
387 388 -1
388 368 -1
388 387 -1
388 388 3.98583
388 389 -1
389 369 -1
389 388 -1
389 389 3.98583
389 390 -1
390 370 -1
390 389 -1
390 390 3.98583
390 391 -1
391 371 -1
391 390 -1
391 391 3.98583
391 392 -1
392 372 -1
392 391 -1
392 392 3.98583
392 393 -1
393 373 -1
393 392 -1
393 393 3.98583
393 394 -1
394 374 -1
394 393 -1
394 394 3.98583
394 395 -1
395 375 -1
395 394 -1
395 395 3.98583
395 396 -1
396 376 -1
396 395 -1
396 396 3.98583
396 397 -1
397 377 -1
397 396 -1
397 397 3.98583
397 398 -1
398 378 -1
398 397 -1
398 398 3.98583
398 399 -1
399 379 -1
399 398 -1
399 399 3.98583
399 400 -1
400 380 -1
400 399 -1
400 400 3.98583
