%%MatrixMarket matrix array real general
% Right-hand side for helmholtz_400: f(x,y) = h^2 (uniform)
400 1
2.26757370e-03
2.26757370e-03
2.26757370e-03
2.26757370e-03
2.26757370e-03
2.26757370e-03
2.26757370e-03
2.26757370e-03
2.26757370e-03
2.26757370e-03
2.26757370e-03
2.26757370e-03
2.26757370e-03
2.26757370e-03
2.26757370e-03
2.26757370e-03
2.26757370e-03
2.26757370e-03
2.26757370e-03
2.26757370e-03
2.26757370e-03
2.26757370e-03
2.26757370e-03
2.26757370e-03
2.26757370e-03
2.26757370e-03
2.26757370e-03
2.26757370e-03
2.26757370e-03
2.26757370e-03
2.26757370e-03
2.26757370e-03
2.26757370e-03
2.26757370e-03
2.26757370e-03
2.26757370e-03
2.26757370e-03
2.26757370e-03
2.26757370e-03
2.26757370e-03
2.26757370e-03
2.26757370e-03
2.26757370e-03
2.26757370e-03
2.26757370e-03
2.26757370e-03
2.26757370e-03
2.26757370e-03
2.26757370e-03
2.26757370e-03
2.26757370e-03
2.26757370e-03
2.26757370e-03
2.26757370e-03
2.26757370e-03
2.26757370e-03
2.26757370e-03
2.26757370e-03
2.26757370e-03
2.26757370e-03
2.26757370e-03
2.26757370e-03
2.26757370e-03
2.26757370e-03
2.26757370e-03
2.26757370e-03
2.26757370e-03
2.26757370e-03
2.26757370e-03
2.26757370e-03
2.26757370e-03
2.26757370e-03
2.26757370e-03
2.26757370e-03
2.26757370e-03
2.26757370e-03
2.26757370e-03
2.26757370e-03
2.26757370e-03
2.26757370e-03
2.26757370e-03
2.26757370e-03
2.26757370e-03
2.26757370e-03
2.26757370e-03
2.26757370e-03
2.26757370e-03
2.26757370e-03
2.26757370e-03
2.26757370e-03
2.26757370e-03
2.26757370e-03
2.26757370e-03
2.26757370e-03
2.26757370e-03
2.26757370e-03
2.26757370e-03
2.26757370e-03
2.26757370e-03
2.26757370e-03
2.26757370e-03
2.26757370e-03
2.26757370e-03
2.26757370e-03
2.26757370e-03
2.26757370e-03
2.26757370e-03
2.26757370e-03
2.26757370e-03
2.26757370e-03
2.26757370e-03
2.26757370e-03
2.26757370e-03
2.26757370e-03
2.26757370e-03
2.26757370e-03
2.26757370e-03
2.26757370e-03
2.26757370e-03
2.26757370e-03
2.26757370e-03
2.26757370e-03
2.26757370e-03
2.26757370e-03
2.26757370e-03
2.26757370e-03
2.26757370e-03
2.26757370e-03
2.26757370e-03
2.26757370e-03
2.26757370e-03
2.26757370e-03
2.26757370e-03
2.26757370e-03
2.26757370e-03
2.26757370e-03
2.26757370e-03
2.26757370e-03
2.26757370e-03
2.26757370e-03
2.26757370e-03
2.26757370e-03
2.26757370e-03
2.26757370e-03
2.26757370e-03
2.26757370e-03
2.26757370e-03
2.26757370e-03
2.26757370e-03
2.26757370e-03
2.26757370e-03
2.26757370e-03
2.26757370e-03
2.26757370e-03
2.26757370e-03
2.26757370e-03
2.26757370e-03
2.26757370e-03
2.26757370e-03
2.26757370e-03
2.26757370e-03
2.26757370e-03
2.26757370e-03
2.26757370e-03
2.26757370e-03
2.26757370e-03
2.26757370e-03
2.26757370e-03
2.26757370e-03
2.26757370e-03
2.26757370e-03
2.26757370e-03
2.26757370e-03
2.26757370e-03
2.26757370e-03
2.26757370e-03
2.26757370e-03
2.26757370e-03
2.26757370e-03
2.26757370e-03
2.26757370e-03
2.26757370e-03
2.26757370e-03
2.26757370e-03
2.26757370e-03
2.26757370e-03
2.26757370e-03
2.26757370e-03
2.26757370e-03
2.26757370e-03
2.26757370e-03
2.26757370e-03
2.26757370e-03
2.26757370e-03
2.26757370e-03
2.26757370e-03
2.26757370e-03
2.26757370e-03
2.26757370e-03
2.26757370e-03
2.26757370e-03
2.26757370e-03
2.26757370e-03
2.26757370e-03
2.26757370e-03
2.26757370e-03
2.26757370e-03
2.26757370e-03
2.26757370e-03
2.26757370e-03
2.26757370e-03
2.26757370e-03
2.26757370e-03
2.26757370e-03
2.26757370e-03
2.26757370e-03
2.26757370e-03
2.26757370e-03
2.26757370e-03
2.26757370e-03
2.26757370e-03
2.26757370e-03
2.26757370e-03
2.26757370e-03
2.26757370e-03
2.26757370e-03
2.26757370e-03
2.26757370e-03
2.26757370e-03
2.26757370e-03
2.26757370e-03
2.26757370e-03
2.26757370e-03
2.26757370e-03
2.26757370e-03
2.26757370e-03
2.26757370e-03
2.26757370e-03
2.26757370e-03
2.26757370e-03
2.26757370e-03
2.26757370e-03
2.26757370e-03
2.26757370e-03
2.26757370e-03
2.26757370e-03
2.26757370e-03
2.26757370e-03
2.26757370e-03
2.26757370e-03
2.26757370e-03
2.26757370e-03
2.26757370e-03
2.26757370e-03
2.26757370e-03
2.26757370e-03
2.26757370e-03
2.26757370e-03
2.26757370e-03
2.26757370e-03
2.26757370e-03
2.26757370e-03
2.26757370e-03
2.26757370e-03
2.26757370e-03
2.26757370e-03
2.26757370e-03
2.26757370e-03
2.26757370e-03
2.26757370e-03
2.26757370e-03
2.26757370e-03
2.26757370e-03
2.26757370e-03
2.26757370e-03
2.26757370e-03
2.26757370e-03
2.26757370e-03
2.26757370e-03
2.26757370e-03
2.26757370e-03
2.26757370e-03
2.26757370e-03
2.26757370e-03
2.26757370e-03
2.26757370e-03
2.26757370e-03
2.26757370e-03
2.26757370e-03
2.26757370e-03
2.26757370e-03
2.26757370e-03
2.26757370e-03
2.26757370e-03
2.26757370e-03
2.26757370e-03
2.26757370e-03
2.26757370e-03
2.26757370e-03
2.26757370e-03
2.26757370e-03
2.26757370e-03
2.26757370e-03
2.26757370e-03
2.26757370e-03
2.26757370e-03
2.26757370e-03
2.26757370e-03
2.26757370e-03
2.26757370e-03
2.26757370e-03
2.26757370e-03
2.26757370e-03
2.26757370e-03
2.26757370e-03
2.26757370e-03
2.26757370e-03
2.26757370e-03
2.26757370e-03
2.26757370e-03
2.26757370e-03
2.26757370e-03
2.26757370e-03
2.26757370e-03
2.26757370e-03
2.26757370e-03
2.26757370e-03
2.26757370e-03
2.26757370e-03
2.26757370e-03
2.26757370e-03
2.26757370e-03
2.26757370e-03
2.26757370e-03
2.26757370e-03
2.26757370e-03
2.26757370e-03
2.26757370e-03
2.26757370e-03
2.26757370e-03
2.26757370e-03
2.26757370e-03
2.26757370e-03
2.26757370e-03
2.26757370e-03
2.26757370e-03
2.26757370e-03
2.26757370e-03
2.26757370e-03
2.26757370e-03
2.26757370e-03
2.26757370e-03
2.26757370e-03
2.26757370e-03
2.26757370e-03
2.26757370e-03
2.26757370e-03
2.26757370e-03
2.26757370e-03
2.26757370e-03
2.26757370e-03
2.26757370e-03
2.26757370e-03
2.26757370e-03
2.26757370e-03
2.26757370e-03
2.26757370e-03
2.26757370e-03
2.26757370e-03
2.26757370e-03
2.26757370e-03
2.26757370e-03
2.26757370e-03
2.26757370e-03
2.26757370e-03
2.26757370e-03
2.26757370e-03
2.26757370e-03
2.26757370e-03
2.26757370e-03
2.26757370e-03
2.26757370e-03
2.26757370e-03
2.26757370e-03
2.26757370e-03
2.26757370e-03
2.26757370e-03
2.26757370e-03
2.26757370e-03
2.26757370e-03
2.26757370e-03
2.26757370e-03
2.26757370e-03
2.26757370e-03
2.26757370e-03
2.26757370e-03
2.26757370e-03
2.26757370e-03
2.26757370e-03
2.26757370e-03
