%%MatrixMarket matrix array real general
% Right-hand side for pde225: f(x,y) = h^2 (uniform)
225 1
3.90625000e-03
3.90625000e-03
3.90625000e-03
3.90625000e-03
3.90625000e-03
3.90625000e-03
3.90625000e-03
3.90625000e-03
3.90625000e-03
3.90625000e-03
3.90625000e-03
3.90625000e-03
3.90625000e-03
3.90625000e-03
3.90625000e-03
3.90625000e-03
3.90625000e-03
3.90625000e-03
3.90625000e-03
3.90625000e-03
3.90625000e-03
3.90625000e-03
3.90625000e-03
3.90625000e-03
3.90625000e-03
3.90625000e-03
3.90625000e-03
3.90625000e-03
3.90625000e-03
3.90625000e-03
3.90625000e-03
3.90625000e-03
3.90625000e-03
3.90625000e-03
3.90625000e-03
3.90625000e-03
3.90625000e-03
3.90625000e-03
3.90625000e-03
3.90625000e-03
3.90625000e-03
3.90625000e-03
3.90625000e-03
3.90625000e-03
3.90625000e-03
3.90625000e-03
3.90625000e-03
3.90625000e-03
3.90625000e-03
3.90625000e-03
3.90625000e-03
3.90625000e-03
3.90625000e-03
3.90625000e-03
3.90625000e-03
3.90625000e-03
3.90625000e-03
3.90625000e-03
3.90625000e-03
3.90625000e-03
3.90625000e-03
3.90625000e-03
3.90625000e-03
3.90625000e-03
3.90625000e-03
3.90625000e-03
3.90625000e-03
3.90625000e-03
3.90625000e-03
3.90625000e-03
3.90625000e-03
3.90625000e-03
3.90625000e-03
3.90625000e-03
3.90625000e-03
3.90625000e-03
3.90625000e-03
3.90625000e-03
3.90625000e-03
3.90625000e-03
3.90625000e-03
3.90625000e-03
3.90625000e-03
3.90625000e-03
3.90625000e-03
3.90625000e-03
3.90625000e-03
3.90625000e-03
3.90625000e-03
3.90625000e-03
3.90625000e-03
3.90625000e-03
3.90625000e-03
3.90625000e-03
3.90625000e-03
3.90625000e-03
3.90625000e-03
3.90625000e-03
3.90625000e-03
3.90625000e-03
3.90625000e-03
3.90625000e-03
3.90625000e-03
3.90625000e-03
3.90625000e-03
3.90625000e-03
3.90625000e-03
3.90625000e-03
3.90625000e-03
3.90625000e-03
3.90625000e-03
3.90625000e-03
3.90625000e-03
3.90625000e-03
3.90625000e-03
3.90625000e-03
3.90625000e-03
3.90625000e-03
3.90625000e-03
3.90625000e-03
3.90625000e-03
3.90625000e-03
3.90625000e-03
3.90625000e-03
3.90625000e-03
3.90625000e-03
3.90625000e-03
3.90625000e-03
3.90625000e-03
3.90625000e-03
3.90625000e-03
3.90625000e-03
3.90625000e-03
3.90625000e-03
3.90625000e-03
3.90625000e-03
3.90625000e-03
3.90625000e-03
3.90625000e-03
3.90625000e-03
3.90625000e-03
3.90625000e-03
3.90625000e-03
3.90625000e-03
3.90625000e-03
3.90625000e-03
3.90625000e-03
3.90625000e-03
3.90625000e-03
3.90625000e-03
3.90625000e-03
3.90625000e-03
3.90625000e-03
3.90625000e-03
3.90625000e-03
3.90625000e-03
3.90625000e-03
3.90625000e-03
3.90625000e-03
3.90625000e-03
3.90625000e-03
3.90625000e-03
3.90625000e-03
3.90625000e-03
3.90625000e-03
3.90625000e-03
3.90625000e-03
3.90625000e-03
3.90625000e-03
3.90625000e-03
3.90625000e-03
3.90625000e-03
3.90625000e-03
3.90625000e-03
3.90625000e-03
3.90625000e-03
3.90625000e-03
3.90625000e-03
3.90625000e-03
3.90625000e-03
3.90625000e-03
3.90625000e-03
3.90625000e-03
3.90625000e-03
3.90625000e-03
3.90625000e-03
3.90625000e-03
3.90625000e-03
3.90625000e-03
3.90625000e-03
3.90625000e-03
3.90625000e-03
3.90625000e-03
3.90625000e-03
3.90625000e-03
3.90625000e-03
3.90625000e-03
3.90625000e-03
3.90625000e-03
3.90625000e-03
3.90625000e-03
3.90625000e-03
3.90625000e-03
3.90625000e-03
3.90625000e-03
3.90625000e-03
3.90625000e-03
3.90625000e-03
3.90625000e-03
3.90625000e-03
3.90625000e-03
3.90625000e-03
3.90625000e-03
3.90625000e-03
3.90625000e-03
3.90625000e-03
3.90625000e-03
3.90625000e-03
3.90625000e-03
3.90625000e-03
3.90625000e-03
3.90625000e-03
3.90625000e-03
3.90625000e-03
3.90625000e-03
