%%MatrixMarket matrix coordinate real symmetric
% pde225
% Bai group: 2D Laplacian on 15x15 grid. Kind: 2D/3D Problem. SPD.
225 225 645
1 1 4.0
1 2 -1.0
1 16 -1.0
2 2 4.0
2 3 -1.0
2 17 -1.0
3 3 4.0
3 4 -1.0
3 18 -1.0
4 4 4.0
4 5 -1.0
4 19 -1.0
5 5 4.0
5 6 -1.0
5 20 -1.0
6 6 4.0
6 7 -1.0
6 21 -1.0
7 7 4.0
7 8 -1.0
7 22 -1.0
8 8 4.0
8 9 -1.0
8 23 -1.0
9 9 4.0
9 10 -1.0
9 24 -1.0
10 10 4.0
10 11 -1.0
10 25 -1.0
11 11 4.0
11 12 -1.0
11 26 -1.0
12 12 4.0
12 13 -1.0
12 27 -1.0
13 13 4.0
13 14 -1.0
13 28 -1.0
14 14 4.0
14 15 -1.0
14 29 -1.0
15 15 4.0
15 30 -1.0
16 16 4.0
16 17 -1.0
16 31 -1.0
17 17 4.0
17 18 -1.0
17 32 -1.0
18 18 4.0
18 19 -1.0
18 33 -1.0
19 19 4.0
19 20 -1.0
19 34 -1.0
20 20 4.0
20 21 -1.0
20 35 -1.0
21 21 4.0
21 22 -1.0
21 36 -1.0
22 22 4.0
22 23 -1.0
22 37 -1.0
23 23 4.0
23 24 -1.0
23 38 -1.0
24 24 4.0
24 25 -1.0
24 39 -1.0
25 25 4.0
25 26 -1.0
25 40 -1.0
26 26 4.0
26 27 -1.0
26 41 -1.0
27 27 4.0
27 28 -1.0
27 42 -1.0
28 28 4.0
28 29 -1.0
28 43 -1.0
29 29 4.0
29 30 -1.0
29 44 -1.0
30 30 4.0
30 45 -1.0
31 31 4.0
31 32 -1.0
31 46 -1.0
32 32 4.0
32 33 -1.0
32 47 -1.0
33 33 4.0
33 34 -1.0
33 48 -1.0
34 34 4.0
34 35 -1.0
34 49 -1.0
35 35 4.0
35 36 -1.0
35 50 -1.0
36 36 4.0
36 37 -1.0
36 51 -1.0
37 37 4.0
37 38 -1.0
37 52 -1.0
38 38 4.0
38 39 -1.0
38 53 -1.0
39 39 4.0
39 40 -1.0
39 54 -1.0
40 40 4.0
40 41 -1.0
40 55 -1.0
41 41 4.0
41 42 -1.0
41 56 -1.0
42 42 4.0
42 43 -1.0
42 57 -1.0
43 43 4.0
43 44 -1.0
43 58 -1.0
44 44 4.0
44 45 -1.0
44 59 -1.0
45 45 4.0
45 60 -1.0
46 46 4.0
46 47 -1.0
46 61 -1.0
47 47 4.0
47 48 -1.0
47 62 -1.0
48 48 4.0
48 49 -1.0
48 63 -1.0
49 49 4.0
49 50 -1.0
49 64 -1.0
50 50 4.0
50 51 -1.0
50 65 -1.0
51 51 4.0
51 52 -1.0
51 66 -1.0
52 52 4.0
52 53 -1.0
52 67 -1.0
53 53 4.0
53 54 -1.0
53 68 -1.0
54 54 4.0
54 55 -1.0
54 69 -1.0
55 55 4.0
55 56 -1.0
55 70 -1.0
56 56 4.0
56 57 -1.0
56 71 -1.0
57 57 4.0
57 58 -1.0
57 72 -1.0
58 58 4.0
58 59 -1.0
58 73 -1.0
59 59 4.0
59 60 -1.0
59 74 -1.0
60 60 4.0
60 75 -1.0
61 61 4.0
61 62 -1.0
61 76 -1.0
62 62 4.0
62 63 -1.0
62 77 -1.0
63 63 4.0
63 64 -1.0
63 78 -1.0
64 64 4.0
64 65 -1.0
64 79 -1.0
65 65 4.0
65 66 -1.0
65 80 -1.0
66 66 4.0
66 67 -1.0
66 81 -1.0
67 67 4.0
67 68 -1.0
67 82 -1.0
68 68 4.0
68 69 -1.0
68 83 -1.0
69 69 4.0
69 70 -1.0
69 84 -1.0
70 70 4.0
70 71 -1.0
70 85 -1.0
71 71 4.0
71 72 -1.0
71 86 -1.0
72 72 4.0
72 73 -1.0
72 87 -1.0
73 73 4.0
73 74 -1.0
73 88 -1.0
74 74 4.0
74 75 -1.0
74 89 -1.0
75 75 4.0
75 90 -1.0
76 76 4.0
76 77 -1.0
76 91 -1.0
77 77 4.0
77 78 -1.0
77 92 -1.0
78 78 4.0
78 79 -1.0
78 93 -1.0
79 79 4.0
79 80 -1.0
79 94 -1.0
80 80 4.0
80 81 -1.0
80 95 -1.0
81 81 4.0
81 82 -1.0
81 96 -1.0
82 82 4.0
82 83 -1.0
82 97 -1.0
83 83 4.0
83 84 -1.0
83 98 -1.0
84 84 4.0
84 85 -1.0
84 99 -1.0
85 85 4.0
85 86 -1.0
85 100 -1.0
86 86 4.0
86 87 -1.0
86 101 -1.0
87 87 4.0
87 88 -1.0
87 102 -1.0
88 88 4.0
88 89 -1.0
88 103 -1.0
89 89 4.0
89 90 -1.0
89 104 -1.0
90 90 4.0
90 105 -1.0
91 91 4.0
91 92 -1.0
91 106 -1.0
92 92 4.0
92 93 -1.0
92 107 -1.0
93 93 4.0
93 94 -1.0
93 108 -1.0
94 94 4.0
94 95 -1.0
94 109 -1.0
95 95 4.0
95 96 -1.0
95 110 -1.0
96 96 4.0
96 97 -1.0
96 111 -1.0
97 97 4.0
97 98 -1.0
97 112 -1.0
98 98 4.0
98 99 -1.0
98 113 -1.0
99 99 4.0
99 100 -1.0
99 114 -1.0
100 100 4.0
100 101 -1.0
100 115 -1.0
101 101 4.0
101 102 -1.0
101 116 -1.0
102 102 4.0
102 103 -1.0
102 117 -1.0
103 103 4.0
103 104 -1.0
103 118 -1.0
104 104 4.0
104 105 -1.0
104 119 -1.0
105 105 4.0
105 120 -1.0
106 106 4.0
106 107 -1.0
106 121 -1.0
107 107 4.0
107 108 -1.0
107 122 -1.0
108 108 4.0
108 109 -1.0
108 123 -1.0
109 109 4.0
109 110 -1.0
109 124 -1.0
110 110 4.0
110 111 -1.0
110 125 -1.0
111 111 4.0
111 112 -1.0
111 126 -1.0
112 112 4.0
112 113 -1.0
112 127 -1.0
113 113 4.0
113 114 -1.0
113 128 -1.0
114 114 4.0
114 115 -1.0
114 129 -1.0
115 115 4.0
115 116 -1.0
115 130 -1.0
116 116 4.0
116 117 -1.0
116 131 -1.0
117 117 4.0
117 118 -1.0
117 132 -1.0
118 118 4.0
118 119 -1.0
118 133 -1.0
119 119 4.0
119 120 -1.0
119 134 -1.0
120 120 4.0
120 135 -1.0
121 121 4.0
121 122 -1.0
121 136 -1.0
122 122 4.0
122 123 -1.0
122 137 -1.0
123 123 4.0
123 124 -1.0
123 138 -1.0
124 124 4.0
124 125 -1.0
124 139 -1.0
125 125 4.0
125 126 -1.0
125 140 -1.0
126 126 4.0
126 127 -1.0
126 141 -1.0
127 127 4.0
127 128 -1.0
127 142 -1.0
128 128 4.0
128 129 -1.0
128 143 -1.0
129 129 4.0
129 130 -1.0
129 144 -1.0
130 130 4.0
130 131 -1.0
130 145 -1.0
131 131 4.0
131 132 -1.0
131 146 -1.0
132 132 4.0
132 133 -1.0
132 147 -1.0
133 133 4.0
133 134 -1.0
133 148 -1.0
134 134 4.0
134 135 -1.0
134 149 -1.0
135 135 4.0
135 150 -1.0
136 136 4.0
136 137 -1.0
136 151 -1.0
137 137 4.0
137 138 -1.0
137 152 -1.0
138 138 4.0
138 139 -1.0
138 153 -1.0
139 139 4.0
139 140 -1.0
139 154 -1.0
140 140 4.0
140 141 -1.0
140 155 -1.0
141 141 4.0
141 142 -1.0
141 156 -1.0
142 142 4.0
142 143 -1.0
142 157 -1.0
143 143 4.0
143 144 -1.0
143 158 -1.0
144 144 4.0
144 145 -1.0
144 159 -1.0
145 145 4.0
145 146 -1.0
145 160 -1.0
146 146 4.0
146 147 -1.0
146 161 -1.0
147 147 4.0
147 148 -1.0
147 162 -1.0
148 148 4.0
148 149 -1.0
148 163 -1.0
149 149 4.0
149 150 -1.0
149 164 -1.0
150 150 4.0
150 165 -1.0
151 151 4.0
151 152 -1.0
151 166 -1.0
152 152 4.0
152 153 -1.0
152 167 -1.0
153 153 4.0
153 154 -1.0
153 168 -1.0
154 154 4.0
154 155 -1.0
154 169 -1.0
155 155 4.0
155 156 -1.0
155 170 -1.0
156 156 4.0
156 157 -1.0
156 171 -1.0
157 157 4.0
157 158 -1.0
157 172 -1.0
158 158 4.0
158 159 -1.0
158 173 -1.0
159 159 4.0
159 160 -1.0
159 174 -1.0
160 160 4.0
160 161 -1.0
160 175 -1.0
161 161 4.0
161 162 -1.0
161 176 -1.0
162 162 4.0
162 163 -1.0
162 177 -1.0
163 163 4.0
163 164 -1.0
163 178 -1.0
164 164 4.0
164 165 -1.0
164 179 -1.0
165 165 4.0
165 180 -1.0
166 166 4.0
166 167 -1.0
166 181 -1.0
167 167 4.0
167 168 -1.0
167 182 -1.0
168 168 4.0
168 169 -1.0
168 183 -1.0
169 169 4.0
169 170 -1.0
169 184 -1.0
170 170 4.0
170 171 -1.0
170 185 -1.0
171 171 4.0
171 172 -1.0
171 186 -1.0
172 172 4.0
172 173 -1.0
172 187 -1.0
173 173 4.0
173 174 -1.0
173 188 -1.0
174 174 4.0
174 175 -1.0
174 189 -1.0
175 175 4.0
175 176 -1.0
175 190 -1.0
176 176 4.0
176 177 -1.0
176 191 -1.0
177 177 4.0
177 178 -1.0
177 192 -1.0
178 178 4.0
178 179 -1.0
178 193 -1.0
179 179 4.0
179 180 -1.0
179 194 -1.0
180 180 4.0
180 195 -1.0
181 181 4.0
181 182 -1.0
181 196 -1.0
182 182 4.0
182 183 -1.0
182 197 -1.0
183 183 4.0
183 184 -1.0
183 198 -1.0
184 184 4.0
184 185 -1.0
184 199 -1.0
185 185 4.0
185 186 -1.0
185 200 -1.0
186 186 4.0
186 187 -1.0
186 201 -1.0
187 187 4.0
187 188 -1.0
187 202 -1.0
188 188 4.0
188 189 -1.0
188 203 -1.0
189 189 4.0
189 190 -1.0
189 204 -1.0
190 190 4.0
190 191 -1.0
190 205 -1.0
191 191 4.0
191 192 -1.0
191 206 -1.0
192 192 4.0
192 193 -1.0
192 207 -1.0
193 193 4.0
193 194 -1.0
193 208 -1.0
194 194 4.0
194 195 -1.0
194 209 -1.0
195 195 4.0
195 210 -1.0
196 196 4.0
196 197 -1.0
196 211 -1.0
197 197 4.0
197 198 -1.0
197 212 -1.0
198 198 4.0
198 199 -1.0
198 213 -1.0
199 199 4.0
199 200 -1.0
199 214 -1.0
200 200 4.0
200 201 -1.0
200 215 -1.0
201 201 4.0
201 202 -1.0
201 216 -1.0
202 202 4.0
202 203 -1.0
202 217 -1.0
203 203 4.0
203 204 -1.0
203 218 -1.0
204 204 4.0
204 205 -1.0
204 219 -1.0
205 205 4.0
205 206 -1.0
205 220 -1.0
206 206 4.0
206 207 -1.0
206 221 -1.0
207 207 4.0
207 208 -1.0
207 222 -1.0
208 208 4.0
208 209 -1.0
208 223 -1.0
209 209 4.0
209 210 -1.0
209 224 -1.0
210 210 4.0
210 225 -1.0
211 211 4.0
211 212 -1.0
212 212 4.0
212 213 -1.0
213 213 4.0
213 214 -1.0
214 214 4.0
214 215 -1.0
215 215 4.0
215 216 -1.0
216 216 4.0
216 217 -1.0
217 217 4.0
217 218 -1.0
218 218 4.0
218 219 -1.0
219 219 4.0
219 220 -1.0
220 220 4.0
220 221 -1.0
221 221 4.0
221 222 -1.0
222 222 4.0
222 223 -1.0
223 223 4.0
223 224 -1.0
224 224 4.0
224 225 -1.0
225 225 4.0
