%%MatrixMarket matrix array real general
% Right-hand side for pde2961: f(x,y) = h^2 (uniform)
2916 1
3.30578512e-04
3.30578512e-04
3.30578512e-04
3.30578512e-04
3.30578512e-04
3.30578512e-04
3.30578512e-04
3.30578512e-04
3.30578512e-04
3.30578512e-04
3.30578512e-04
3.30578512e-04
3.30578512e-04
3.30578512e-04
3.30578512e-04
3.30578512e-04
3.30578512e-04
3.30578512e-04
3.30578512e-04
3.30578512e-04
3.30578512e-04
3.30578512e-04
3.30578512e-04
3.30578512e-04
3.30578512e-04
3.30578512e-04
3.30578512e-04
3.30578512e-04
3.30578512e-04
3.30578512e-04
3.30578512e-04
3.30578512e-04
3.30578512e-04
3.30578512e-04
3.30578512e-04
3.30578512e-04
3.30578512e-04
3.30578512e-04
3.30578512e-04
3.30578512e-04
3.30578512e-04
3.30578512e-04
3.30578512e-04
3.30578512e-04
3.30578512e-04
3.30578512e-04
3.30578512e-04
3.30578512e-04
3.30578512e-04
3.30578512e-04
3.30578512e-04
3.30578512e-04
3.30578512e-04
3.30578512e-04
3.30578512e-04
3.30578512e-04
3.30578512e-04
3.30578512e-04
3.30578512e-04
3.30578512e-04
3.30578512e-04
3.30578512e-04
3.30578512e-04
3.30578512e-04
3.30578512e-04
3.30578512e-04
3.30578512e-04
3.30578512e-04
3.30578512e-04
3.30578512e-04
3.30578512e-04
3.30578512e-04
3.30578512e-04
3.30578512e-04
3.30578512e-04
3.30578512e-04
3.30578512e-04
3.30578512e-04
3.30578512e-04
3.30578512e-04
3.30578512e-04
3.30578512e-04
3.30578512e-04
3.30578512e-04
3.30578512e-04
3.30578512e-04
3.30578512e-04
3.30578512e-04
3.30578512e-04
3.30578512e-04
3.30578512e-04
3.30578512e-04
3.30578512e-04
3.30578512e-04
3.30578512e-04
3.30578512e-04
3.30578512e-04
3.30578512e-04
3.30578512e-04
3.30578512e-04
3.30578512e-04
3.30578512e-04
3.30578512e-04
3.30578512e-04
3.30578512e-04
3.30578512e-04
3.30578512e-04
3.30578512e-04
3.30578512e-04
3.30578512e-04
3.30578512e-04
3.30578512e-04
3.30578512e-04
3.30578512e-04
3.30578512e-04
3.30578512e-04
3.30578512e-04
3.30578512e-04
3.30578512e-04
3.30578512e-04
3.30578512e-04
3.30578512e-04
3.30578512e-04
3.30578512e-04
3.30578512e-04
3.30578512e-04
3.30578512e-04
3.30578512e-04
3.30578512e-04
3.30578512e-04
3.30578512e-04
3.30578512e-04
3.30578512e-04
3.30578512e-04
3.30578512e-04
3.30578512e-04
3.30578512e-04
3.30578512e-04
3.30578512e-04
3.30578512e-04
3.30578512e-04
3.30578512e-04
3.30578512e-04
3.30578512e-04
3.30578512e-04
3.30578512e-04
3.30578512e-04
3.30578512e-04
3.30578512e-04
3.30578512e-04
3.30578512e-04
3.30578512e-04
3.30578512e-04
3.30578512e-04
3.30578512e-04
3.30578512e-04
3.30578512e-04
3.30578512e-04
3.30578512e-04
3.30578512e-04
3.30578512e-04
3.30578512e-04
3.30578512e-04
3.30578512e-04
3.30578512e-04
3.30578512e-04
3.30578512e-04
3.30578512e-04
3.30578512e-04
3.30578512e-04
3.30578512e-04
3.30578512e-04
3.30578512e-04
3.30578512e-04
3.30578512e-04
3.30578512e-04
3.30578512e-04
3.30578512e-04
3.30578512e-04
3.30578512e-04
3.30578512e-04
3.30578512e-04
3.30578512e-04
3.30578512e-04
3.30578512e-04
3.30578512e-04
3.30578512e-04
3.30578512e-04
3.30578512e-04
3.30578512e-04
3.30578512e-04
3.30578512e-04
3.30578512e-04
3.30578512e-04
3.30578512e-04
3.30578512e-04
3.30578512e-04
3.30578512e-04
3.30578512e-04
3.30578512e-04
3.30578512e-04
3.30578512e-04
3.30578512e-04
3.30578512e-04
3.30578512e-04
3.30578512e-04
3.30578512e-04
3.30578512e-04
3.30578512e-04
3.30578512e-04
3.30578512e-04
3.30578512e-04
3.30578512e-04
3.30578512e-04
3.30578512e-04
3.30578512e-04
3.30578512e-04
3.30578512e-04
3.30578512e-04
3.30578512e-04
3.30578512e-04
3.30578512e-04
3.30578512e-04
3.30578512e-04
3.30578512e-04
3.30578512e-04
3.30578512e-04
3.30578512e-04
3.30578512e-04
3.30578512e-04
3.30578512e-04
3.30578512e-04
3.30578512e-04
3.30578512e-04
3.30578512e-04
3.30578512e-04
3.30578512e-04
3.30578512e-04
3.30578512e-04
3.30578512e-04
3.30578512e-04
3.30578512e-04
3.30578512e-04
3.30578512e-04
3.30578512e-04
3.30578512e-04
3.30578512e-04
3.30578512e-04
3.30578512e-04
3.30578512e-04
3.30578512e-04
3.30578512e-04
3.30578512e-04
3.30578512e-04
3.30578512e-04
3.30578512e-04
3.30578512e-04
3.30578512e-04
3.30578512e-04
3.30578512e-04
3.30578512e-04
3.30578512e-04
3.30578512e-04
3.30578512e-04
3.30578512e-04
3.30578512e-04
3.30578512e-04
3.30578512e-04
3.30578512e-04
3.30578512e-04
3.30578512e-04
3.30578512e-04
3.30578512e-04
3.30578512e-04
3.30578512e-04
3.30578512e-04
3.30578512e-04
3.30578512e-04
3.30578512e-04
3.30578512e-04
3.30578512e-04
3.30578512e-04
3.30578512e-04
3.30578512e-04
3.30578512e-04
3.30578512e-04
3.30578512e-04
3.30578512e-04
3.30578512e-04
3.30578512e-04
3.30578512e-04
3.30578512e-04
3.30578512e-04
3.30578512e-04
3.30578512e-04
3.30578512e-04
3.30578512e-04
3.30578512e-04
3.30578512e-04
3.30578512e-04
3.30578512e-04
3.30578512e-04
3.30578512e-04
3.30578512e-04
3.30578512e-04
3.30578512e-04
3.30578512e-04
3.30578512e-04
3.30578512e-04
3.30578512e-04
3.30578512e-04
3.30578512e-04
3.30578512e-04
3.30578512e-04
3.30578512e-04
3.30578512e-04
3.30578512e-04
3.30578512e-04
3.30578512e-04
3.30578512e-04
3.30578512e-04
3.30578512e-04
3.30578512e-04
3.30578512e-04
3.30578512e-04
3.30578512e-04
3.30578512e-04
3.30578512e-04
3.30578512e-04
3.30578512e-04
3.30578512e-04
3.30578512e-04
3.30578512e-04
3.30578512e-04
3.30578512e-04
3.30578512e-04
3.30578512e-04
3.30578512e-04
3.30578512e-04
3.30578512e-04
3.30578512e-04
3.30578512e-04
3.30578512e-04
3.30578512e-04
3.30578512e-04
3.30578512e-04
3.30578512e-04
3.30578512e-04
3.30578512e-04
3.30578512e-04
3.30578512e-04
3.30578512e-04
3.30578512e-04
3.30578512e-04
3.30578512e-04
3.30578512e-04
3.30578512e-04
3.30578512e-04
3.30578512e-04
3.30578512e-04
3.30578512e-04
3.30578512e-04
3.30578512e-04
3.30578512e-04
3.30578512e-04
3.30578512e-04
3.30578512e-04
3.30578512e-04
3.30578512e-04
3.30578512e-04
3.30578512e-04
3.30578512e-04
3.30578512e-04
3.30578512e-04
3.30578512e-04
3.30578512e-04
3.30578512e-04
3.30578512e-04
3.30578512e-04
3.30578512e-04
3.30578512e-04
3.30578512e-04
3.30578512e-04
3.30578512e-04
3.30578512e-04
3.30578512e-04
3.30578512e-04
3.30578512e-04
3.30578512e-04
3.30578512e-04
3.30578512e-04
3.30578512e-04
3.30578512e-04
3.30578512e-04
3.30578512e-04
3.30578512e-04
3.30578512e-04
3.30578512e-04
3.30578512e-04
3.30578512e-04
3.30578512e-04
3.30578512e-04
3.30578512e-04
3.30578512e-04
3.30578512e-04
3.30578512e-04
3.30578512e-04
3.30578512e-04
3.30578512e-04
3.30578512e-04
3.30578512e-04
3.30578512e-04
3.30578512e-04
3.30578512e-04
3.30578512e-04
3.30578512e-04
3.30578512e-04
3.30578512e-04
3.30578512e-04
3.30578512e-04
3.30578512e-04
3.30578512e-04
3.30578512e-04
3.30578512e-04
3.30578512e-04
3.30578512e-04
3.30578512e-04
3.30578512e-04
3.30578512e-04
3.30578512e-04
3.30578512e-04
3.30578512e-04
3.30578512e-04
3.30578512e-04
3.30578512e-04
3.30578512e-04
3.30578512e-04
3.30578512e-04
3.30578512e-04
3.30578512e-04
3.30578512e-04
3.30578512e-04
3.30578512e-04
3.30578512e-04
3.30578512e-04
3.30578512e-04
3.30578512e-04
3.30578512e-04
3.30578512e-04
3.30578512e-04
3.30578512e-04
3.30578512e-04
3.30578512e-04
3.30578512e-04
3.30578512e-04
3.30578512e-04
3.30578512e-04
3.30578512e-04
3.30578512e-04
3.30578512e-04
3.30578512e-04
3.30578512e-04
3.30578512e-04
3.30578512e-04
3.30578512e-04
3.30578512e-04
3.30578512e-04
3.30578512e-04
3.30578512e-04
3.30578512e-04
3.30578512e-04
3.30578512e-04
3.30578512e-04
3.30578512e-04
3.30578512e-04
3.30578512e-04
3.30578512e-04
3.30578512e-04
3.30578512e-04
3.30578512e-04
3.30578512e-04
3.30578512e-04
3.30578512e-04
3.30578512e-04
3.30578512e-04
3.30578512e-04
3.30578512e-04
3.30578512e-04
3.30578512e-04
3.30578512e-04
3.30578512e-04
3.30578512e-04
3.30578512e-04
3.30578512e-04
3.30578512e-04
3.30578512e-04
3.30578512e-04
3.30578512e-04
3.30578512e-04
3.30578512e-04
3.30578512e-04
3.30578512e-04
3.30578512e-04
3.30578512e-04
3.30578512e-04
3.30578512e-04
3.30578512e-04
3.30578512e-04
3.30578512e-04
3.30578512e-04
3.30578512e-04
3.30578512e-04
3.30578512e-04
3.30578512e-04
3.30578512e-04
3.30578512e-04
3.30578512e-04
3.30578512e-04
3.30578512e-04
3.30578512e-04
3.30578512e-04
3.30578512e-04
3.30578512e-04
3.30578512e-04
3.30578512e-04
3.30578512e-04
3.30578512e-04
3.30578512e-04
3.30578512e-04
3.30578512e-04
3.30578512e-04
3.30578512e-04
3.30578512e-04
3.30578512e-04
3.30578512e-04
3.30578512e-04
3.30578512e-04
3.30578512e-04
3.30578512e-04
3.30578512e-04
3.30578512e-04
3.30578512e-04
3.30578512e-04
3.30578512e-04
3.30578512e-04
3.30578512e-04
3.30578512e-04
3.30578512e-04
3.30578512e-04
3.30578512e-04
3.30578512e-04
3.30578512e-04
3.30578512e-04
3.30578512e-04
3.30578512e-04
3.30578512e-04
3.30578512e-04
3.30578512e-04
3.30578512e-04
3.30578512e-04
3.30578512e-04
3.30578512e-04
3.30578512e-04
3.30578512e-04
3.30578512e-04
3.30578512e-04
3.30578512e-04
3.30578512e-04
3.30578512e-04
3.30578512e-04
3.30578512e-04
3.30578512e-04
3.30578512e-04
3.30578512e-04
3.30578512e-04
3.30578512e-04
3.30578512e-04
3.30578512e-04
3.30578512e-04
3.30578512e-04
3.30578512e-04
3.30578512e-04
3.30578512e-04
3.30578512e-04
3.30578512e-04
3.30578512e-04
3.30578512e-04
3.30578512e-04
3.30578512e-04
3.30578512e-04
3.30578512e-04
3.30578512e-04
3.30578512e-04
3.30578512e-04
3.30578512e-04
3.30578512e-04
3.30578512e-04
3.30578512e-04
3.30578512e-04
3.30578512e-04
3.30578512e-04
3.30578512e-04
3.30578512e-04
3.30578512e-04
3.30578512e-04
3.30578512e-04
3.30578512e-04
3.30578512e-04
3.30578512e-04
3.30578512e-04
3.30578512e-04
3.30578512e-04
3.30578512e-04
3.30578512e-04
3.30578512e-04
3.30578512e-04
3.30578512e-04
3.30578512e-04
3.30578512e-04
3.30578512e-04
3.30578512e-04
3.30578512e-04
3.30578512e-04
3.30578512e-04
3.30578512e-04
3.30578512e-04
3.30578512e-04
3.30578512e-04
3.30578512e-04
3.30578512e-04
3.30578512e-04
3.30578512e-04
3.30578512e-04
3.30578512e-04
3.30578512e-04
3.30578512e-04
3.30578512e-04
3.30578512e-04
3.30578512e-04
3.30578512e-04
3.30578512e-04
3.30578512e-04
3.30578512e-04
3.30578512e-04
3.30578512e-04
3.30578512e-04
3.30578512e-04
3.30578512e-04
3.30578512e-04
3.30578512e-04
3.30578512e-04
3.30578512e-04
3.30578512e-04
3.30578512e-04
3.30578512e-04
3.30578512e-04
3.30578512e-04
3.30578512e-04
3.30578512e-04
3.30578512e-04
3.30578512e-04
3.30578512e-04
3.30578512e-04
3.30578512e-04
3.30578512e-04
3.30578512e-04
3.30578512e-04
3.30578512e-04
3.30578512e-04
3.30578512e-04
3.30578512e-04
3.30578512e-04
3.30578512e-04
3.30578512e-04
3.30578512e-04
3.30578512e-04
3.30578512e-04
3.30578512e-04
3.30578512e-04
3.30578512e-04
3.30578512e-04
3.30578512e-04
3.30578512e-04
3.30578512e-04
3.30578512e-04
3.30578512e-04
3.30578512e-04
3.30578512e-04
3.30578512e-04
3.30578512e-04
3.30578512e-04
3.30578512e-04
3.30578512e-04
3.30578512e-04
3.30578512e-04
3.30578512e-04
3.30578512e-04
3.30578512e-04
3.30578512e-04
3.30578512e-04
3.30578512e-04
3.30578512e-04
3.30578512e-04
3.30578512e-04
3.30578512e-04
3.30578512e-04
3.30578512e-04
3.30578512e-04
3.30578512e-04
3.30578512e-04
3.30578512e-04
3.30578512e-04
3.30578512e-04
3.30578512e-04
3.30578512e-04
3.30578512e-04
3.30578512e-04
3.30578512e-04
3.30578512e-04
3.30578512e-04
3.30578512e-04
3.30578512e-04
3.30578512e-04
3.30578512e-04
3.30578512e-04
3.30578512e-04
3.30578512e-04
3.30578512e-04
3.30578512e-04
3.30578512e-04
3.30578512e-04
3.30578512e-04
3.30578512e-04
3.30578512e-04
3.30578512e-04
3.30578512e-04
3.30578512e-04
3.30578512e-04
3.30578512e-04
3.30578512e-04
3.30578512e-04
3.30578512e-04
3.30578512e-04
3.30578512e-04
3.30578512e-04
3.30578512e-04
3.30578512e-04
3.30578512e-04
3.30578512e-04
3.30578512e-04
3.30578512e-04
3.30578512e-04
3.30578512e-04
3.30578512e-04
3.30578512e-04
3.30578512e-04
3.30578512e-04
3.30578512e-04
3.30578512e-04
3.30578512e-04
3.30578512e-04
3.30578512e-04
3.30578512e-04
3.30578512e-04
3.30578512e-04
3.30578512e-04
3.30578512e-04
3.30578512e-04
3.30578512e-04
3.30578512e-04
3.30578512e-04
3.30578512e-04
3.30578512e-04
3.30578512e-04
3.30578512e-04
3.30578512e-04
3.30578512e-04
3.30578512e-04
3.30578512e-04
3.30578512e-04
3.30578512e-04
3.30578512e-04
3.30578512e-04
3.30578512e-04
3.30578512e-04
3.30578512e-04
3.30578512e-04
3.30578512e-04
3.30578512e-04
3.30578512e-04
3.30578512e-04
3.30578512e-04
3.30578512e-04
3.30578512e-04
3.30578512e-04
3.30578512e-04
3.30578512e-04
3.30578512e-04
3.30578512e-04
3.30578512e-04
3.30578512e-04
3.30578512e-04
3.30578512e-04
3.30578512e-04
3.30578512e-04
3.30578512e-04
3.30578512e-04
3.30578512e-04
3.30578512e-04
3.30578512e-04
3.30578512e-04
3.30578512e-04
3.30578512e-04
3.30578512e-04
3.30578512e-04
3.30578512e-04
3.30578512e-04
3.30578512e-04
3.30578512e-04
3.30578512e-04
3.30578512e-04
3.30578512e-04
3.30578512e-04
3.30578512e-04
3.30578512e-04
3.30578512e-04
3.30578512e-04
3.30578512e-04
3.30578512e-04
3.30578512e-04
3.30578512e-04
3.30578512e-04
3.30578512e-04
3.30578512e-04
3.30578512e-04
3.30578512e-04
3.30578512e-04
3.30578512e-04
3.30578512e-04
3.30578512e-04
3.30578512e-04
3.30578512e-04
3.30578512e-04
3.30578512e-04
3.30578512e-04
3.30578512e-04
3.30578512e-04
3.30578512e-04
3.30578512e-04
3.30578512e-04
3.30578512e-04
3.30578512e-04
3.30578512e-04
3.30578512e-04
3.30578512e-04
3.30578512e-04
3.30578512e-04
3.30578512e-04
3.30578512e-04
3.30578512e-04
3.30578512e-04
3.30578512e-04
3.30578512e-04
3.30578512e-04
3.30578512e-04
3.30578512e-04
3.30578512e-04
3.30578512e-04
3.30578512e-04
3.30578512e-04
3.30578512e-04
3.30578512e-04
3.30578512e-04
3.30578512e-04
3.30578512e-04
3.30578512e-04
3.30578512e-04
3.30578512e-04
3.30578512e-04
3.30578512e-04
3.30578512e-04
3.30578512e-04
3.30578512e-04
3.30578512e-04
3.30578512e-04
3.30578512e-04
3.30578512e-04
3.30578512e-04
3.30578512e-04
3.30578512e-04
3.30578512e-04
3.30578512e-04
3.30578512e-04
3.30578512e-04
3.30578512e-04
3.30578512e-04
3.30578512e-04
3.30578512e-04
3.30578512e-04
3.30578512e-04
3.30578512e-04
3.30578512e-04
3.30578512e-04
3.30578512e-04
3.30578512e-04
3.30578512e-04
3.30578512e-04
3.30578512e-04
3.30578512e-04
3.30578512e-04
3.30578512e-04
3.30578512e-04
3.30578512e-04
3.30578512e-04
3.30578512e-04
3.30578512e-04
3.30578512e-04
3.30578512e-04
3.30578512e-04
3.30578512e-04
3.30578512e-04
3.30578512e-04
3.30578512e-04
3.30578512e-04
3.30578512e-04
3.30578512e-04
3.30578512e-04
3.30578512e-04
3.30578512e-04
3.30578512e-04
3.30578512e-04
3.30578512e-04
3.30578512e-04
3.30578512e-04
3.30578512e-04
3.30578512e-04
3.30578512e-04
3.30578512e-04
3.30578512e-04
3.30578512e-04
3.30578512e-04
3.30578512e-04
3.30578512e-04
3.30578512e-04
3.30578512e-04
3.30578512e-04
3.30578512e-04
3.30578512e-04
3.30578512e-04
3.30578512e-04
3.30578512e-04
3.30578512e-04
3.30578512e-04
3.30578512e-04
3.30578512e-04
3.30578512e-04
3.30578512e-04
3.30578512e-04
3.30578512e-04
3.30578512e-04
3.30578512e-04
3.30578512e-04
3.30578512e-04
3.30578512e-04
3.30578512e-04
3.30578512e-04
3.30578512e-04
3.30578512e-04
3.30578512e-04
3.30578512e-04
3.30578512e-04
3.30578512e-04
3.30578512e-04
3.30578512e-04
3.30578512e-04
3.30578512e-04
3.30578512e-04
3.30578512e-04
3.30578512e-04
3.30578512e-04
3.30578512e-04
3.30578512e-04
3.30578512e-04
3.30578512e-04
3.30578512e-04
3.30578512e-04
3.30578512e-04
3.30578512e-04
3.30578512e-04
3.30578512e-04
3.30578512e-04
3.30578512e-04
3.30578512e-04
3.30578512e-04
3.30578512e-04
3.30578512e-04
3.30578512e-04
3.30578512e-04
3.30578512e-04
3.30578512e-04
3.30578512e-04
3.30578512e-04
3.30578512e-04
3.30578512e-04
3.30578512e-04
3.30578512e-04
3.30578512e-04
3.30578512e-04
3.30578512e-04
3.30578512e-04
3.30578512e-04
3.30578512e-04
3.30578512e-04
3.30578512e-04
3.30578512e-04
3.30578512e-04
3.30578512e-04
3.30578512e-04
3.30578512e-04
3.30578512e-04
3.30578512e-04
3.30578512e-04
3.30578512e-04
3.30578512e-04
3.30578512e-04
3.30578512e-04
3.30578512e-04
3.30578512e-04
3.30578512e-04
3.30578512e-04
3.30578512e-04
3.30578512e-04
3.30578512e-04
3.30578512e-04
3.30578512e-04
3.30578512e-04
3.30578512e-04
3.30578512e-04
3.30578512e-04
3.30578512e-04
3.30578512e-04
3.30578512e-04
3.30578512e-04
3.30578512e-04
3.30578512e-04
3.30578512e-04
3.30578512e-04
3.30578512e-04
3.30578512e-04
3.30578512e-04
3.30578512e-04
3.30578512e-04
3.30578512e-04
3.30578512e-04
3.30578512e-04
3.30578512e-04
3.30578512e-04
3.30578512e-04
3.30578512e-04
3.30578512e-04
3.30578512e-04
3.30578512e-04
3.30578512e-04
3.30578512e-04
3.30578512e-04
3.30578512e-04
3.30578512e-04
3.30578512e-04
3.30578512e-04
3.30578512e-04
3.30578512e-04
3.30578512e-04
3.30578512e-04
3.30578512e-04
3.30578512e-04
3.30578512e-04
3.30578512e-04
3.30578512e-04
3.30578512e-04
3.30578512e-04
3.30578512e-04
3.30578512e-04
3.30578512e-04
3.30578512e-04
3.30578512e-04
3.30578512e-04
3.30578512e-04
3.30578512e-04
3.30578512e-04
3.30578512e-04
3.30578512e-04
3.30578512e-04
3.30578512e-04
3.30578512e-04
3.30578512e-04
3.30578512e-04
3.30578512e-04
3.30578512e-04
3.30578512e-04
3.30578512e-04
3.30578512e-04
3.30578512e-04
3.30578512e-04
3.30578512e-04
3.30578512e-04
3.30578512e-04
3.30578512e-04
3.30578512e-04
3.30578512e-04
3.30578512e-04
3.30578512e-04
3.30578512e-04
3.30578512e-04
3.30578512e-04
3.30578512e-04
3.30578512e-04
3.30578512e-04
3.30578512e-04
3.30578512e-04
3.30578512e-04
3.30578512e-04
3.30578512e-04
3.30578512e-04
3.30578512e-04
3.30578512e-04
3.30578512e-04
3.30578512e-04
3.30578512e-04
3.30578512e-04
3.30578512e-04
3.30578512e-04
3.30578512e-04
3.30578512e-04
3.30578512e-04
3.30578512e-04
3.30578512e-04
3.30578512e-04
3.30578512e-04
3.30578512e-04
3.30578512e-04
3.30578512e-04
3.30578512e-04
3.30578512e-04
3.30578512e-04
3.30578512e-04
3.30578512e-04
3.30578512e-04
3.30578512e-04
3.30578512e-04
3.30578512e-04
3.30578512e-04
3.30578512e-04
3.30578512e-04
3.30578512e-04
3.30578512e-04
3.30578512e-04
3.30578512e-04
3.30578512e-04
3.30578512e-04
3.30578512e-04
3.30578512e-04
3.30578512e-04
3.30578512e-04
3.30578512e-04
3.30578512e-04
3.30578512e-04
3.30578512e-04
3.30578512e-04
3.30578512e-04
3.30578512e-04
3.30578512e-04
3.30578512e-04
3.30578512e-04
3.30578512e-04
3.30578512e-04
3.30578512e-04
3.30578512e-04
3.30578512e-04
3.30578512e-04
3.30578512e-04
3.30578512e-04
3.30578512e-04
3.30578512e-04
3.30578512e-04
3.30578512e-04
3.30578512e-04
3.30578512e-04
3.30578512e-04
3.30578512e-04
3.30578512e-04
3.30578512e-04
3.30578512e-04
3.30578512e-04
3.30578512e-04
3.30578512e-04
3.30578512e-04
3.30578512e-04
3.30578512e-04
3.30578512e-04
3.30578512e-04
3.30578512e-04
3.30578512e-04
3.30578512e-04
3.30578512e-04
3.30578512e-04
3.30578512e-04
3.30578512e-04
3.30578512e-04
3.30578512e-04
3.30578512e-04
3.30578512e-04
3.30578512e-04
3.30578512e-04
3.30578512e-04
3.30578512e-04
3.30578512e-04
3.30578512e-04
3.30578512e-04
3.30578512e-04
3.30578512e-04
3.30578512e-04
3.30578512e-04
3.30578512e-04
3.30578512e-04
3.30578512e-04
3.30578512e-04
3.30578512e-04
3.30578512e-04
3.30578512e-04
3.30578512e-04
3.30578512e-04
3.30578512e-04
3.30578512e-04
3.30578512e-04
3.30578512e-04
3.30578512e-04
3.30578512e-04
3.30578512e-04
3.30578512e-04
3.30578512e-04
3.30578512e-04
3.30578512e-04
3.30578512e-04
3.30578512e-04
3.30578512e-04
3.30578512e-04
3.30578512e-04
3.30578512e-04
3.30578512e-04
3.30578512e-04
3.30578512e-04
3.30578512e-04
3.30578512e-04
3.30578512e-04
3.30578512e-04
3.30578512e-04
3.30578512e-04
3.30578512e-04
3.30578512e-04
3.30578512e-04
3.30578512e-04
3.30578512e-04
3.30578512e-04
3.30578512e-04
3.30578512e-04
3.30578512e-04
3.30578512e-04
3.30578512e-04
3.30578512e-04
3.30578512e-04
3.30578512e-04
3.30578512e-04
3.30578512e-04
3.30578512e-04
3.30578512e-04
3.30578512e-04
3.30578512e-04
3.30578512e-04
3.30578512e-04
3.30578512e-04
3.30578512e-04
3.30578512e-04
3.30578512e-04
3.30578512e-04
3.30578512e-04
3.30578512e-04
3.30578512e-04
3.30578512e-04
3.30578512e-04
3.30578512e-04
3.30578512e-04
3.30578512e-04
3.30578512e-04
3.30578512e-04
3.30578512e-04
3.30578512e-04
3.30578512e-04
3.30578512e-04
3.30578512e-04
3.30578512e-04
3.30578512e-04
3.30578512e-04
3.30578512e-04
3.30578512e-04
3.30578512e-04
3.30578512e-04
3.30578512e-04
3.30578512e-04
3.30578512e-04
3.30578512e-04
3.30578512e-04
3.30578512e-04
3.30578512e-04
3.30578512e-04
3.30578512e-04
3.30578512e-04
3.30578512e-04
3.30578512e-04
3.30578512e-04
3.30578512e-04
3.30578512e-04
3.30578512e-04
3.30578512e-04
3.30578512e-04
3.30578512e-04
3.30578512e-04
3.30578512e-04
3.30578512e-04
3.30578512e-04
3.30578512e-04
3.30578512e-04
3.30578512e-04
3.30578512e-04
3.30578512e-04
3.30578512e-04
3.30578512e-04
3.30578512e-04
3.30578512e-04
3.30578512e-04
3.30578512e-04
3.30578512e-04
3.30578512e-04
3.30578512e-04
3.30578512e-04
3.30578512e-04
3.30578512e-04
3.30578512e-04
3.30578512e-04
3.30578512e-04
3.30578512e-04
3.30578512e-04
3.30578512e-04
3.30578512e-04
3.30578512e-04
3.30578512e-04
3.30578512e-04
3.30578512e-04
3.30578512e-04
3.30578512e-04
3.30578512e-04
3.30578512e-04
3.30578512e-04
3.30578512e-04
3.30578512e-04
3.30578512e-04
3.30578512e-04
3.30578512e-04
3.30578512e-04
3.30578512e-04
3.30578512e-04
3.30578512e-04
3.30578512e-04
3.30578512e-04
3.30578512e-04
3.30578512e-04
3.30578512e-04
3.30578512e-04
3.30578512e-04
3.30578512e-04
3.30578512e-04
3.30578512e-04
3.30578512e-04
3.30578512e-04
3.30578512e-04
3.30578512e-04
3.30578512e-04
3.30578512e-04
3.30578512e-04
3.30578512e-04
3.30578512e-04
3.30578512e-04
3.30578512e-04
3.30578512e-04
3.30578512e-04
3.30578512e-04
3.30578512e-04
3.30578512e-04
3.30578512e-04
3.30578512e-04
3.30578512e-04
3.30578512e-04
3.30578512e-04
3.30578512e-04
3.30578512e-04
3.30578512e-04
3.30578512e-04
3.30578512e-04
3.30578512e-04
3.30578512e-04
3.30578512e-04
3.30578512e-04
3.30578512e-04
3.30578512e-04
3.30578512e-04
3.30578512e-04
3.30578512e-04
3.30578512e-04
3.30578512e-04
3.30578512e-04
3.30578512e-04
3.30578512e-04
3.30578512e-04
3.30578512e-04
3.30578512e-04
3.30578512e-04
3.30578512e-04
3.30578512e-04
3.30578512e-04
3.30578512e-04
3.30578512e-04
3.30578512e-04
3.30578512e-04
3.30578512e-04
3.30578512e-04
3.30578512e-04
3.30578512e-04
3.30578512e-04
3.30578512e-04
3.30578512e-04
3.30578512e-04
3.30578512e-04
3.30578512e-04
3.30578512e-04
3.30578512e-04
3.30578512e-04
3.30578512e-04
3.30578512e-04
3.30578512e-04
3.30578512e-04
3.30578512e-04
3.30578512e-04
3.30578512e-04
3.30578512e-04
3.30578512e-04
3.30578512e-04
3.30578512e-04
3.30578512e-04
3.30578512e-04
3.30578512e-04
3.30578512e-04
3.30578512e-04
3.30578512e-04
3.30578512e-04
3.30578512e-04
3.30578512e-04
3.30578512e-04
3.30578512e-04
3.30578512e-04
3.30578512e-04
3.30578512e-04
3.30578512e-04
3.30578512e-04
3.30578512e-04
3.30578512e-04
3.30578512e-04
3.30578512e-04
3.30578512e-04
3.30578512e-04
3.30578512e-04
3.30578512e-04
3.30578512e-04
3.30578512e-04
3.30578512e-04
3.30578512e-04
3.30578512e-04
3.30578512e-04
3.30578512e-04
3.30578512e-04
3.30578512e-04
3.30578512e-04
3.30578512e-04
3.30578512e-04
3.30578512e-04
3.30578512e-04
3.30578512e-04
3.30578512e-04
3.30578512e-04
3.30578512e-04
3.30578512e-04
3.30578512e-04
3.30578512e-04
3.30578512e-04
3.30578512e-04
3.30578512e-04
3.30578512e-04
3.30578512e-04
3.30578512e-04
3.30578512e-04
3.30578512e-04
3.30578512e-04
3.30578512e-04
3.30578512e-04
3.30578512e-04
3.30578512e-04
3.30578512e-04
3.30578512e-04
3.30578512e-04
3.30578512e-04
3.30578512e-04
3.30578512e-04
3.30578512e-04
3.30578512e-04
3.30578512e-04
3.30578512e-04
3.30578512e-04
3.30578512e-04
3.30578512e-04
3.30578512e-04
3.30578512e-04
3.30578512e-04
3.30578512e-04
3.30578512e-04
3.30578512e-04
3.30578512e-04
3.30578512e-04
3.30578512e-04
3.30578512e-04
3.30578512e-04
3.30578512e-04
3.30578512e-04
3.30578512e-04
3.30578512e-04
3.30578512e-04
3.30578512e-04
3.30578512e-04
3.30578512e-04
3.30578512e-04
3.30578512e-04
3.30578512e-04
3.30578512e-04
3.30578512e-04
3.30578512e-04
3.30578512e-04
3.30578512e-04
3.30578512e-04
3.30578512e-04
3.30578512e-04
3.30578512e-04
3.30578512e-04
3.30578512e-04
3.30578512e-04
3.30578512e-04
3.30578512e-04
3.30578512e-04
3.30578512e-04
3.30578512e-04
3.30578512e-04
3.30578512e-04
3.30578512e-04
3.30578512e-04
3.30578512e-04
3.30578512e-04
3.30578512e-04
3.30578512e-04
3.30578512e-04
3.30578512e-04
3.30578512e-04
3.30578512e-04
3.30578512e-04
3.30578512e-04
3.30578512e-04
3.30578512e-04
3.30578512e-04
3.30578512e-04
3.30578512e-04
3.30578512e-04
3.30578512e-04
3.30578512e-04
3.30578512e-04
3.30578512e-04
3.30578512e-04
3.30578512e-04
3.30578512e-04
3.30578512e-04
3.30578512e-04
3.30578512e-04
3.30578512e-04
3.30578512e-04
3.30578512e-04
3.30578512e-04
3.30578512e-04
3.30578512e-04
3.30578512e-04
3.30578512e-04
3.30578512e-04
3.30578512e-04
3.30578512e-04
3.30578512e-04
3.30578512e-04
3.30578512e-04
3.30578512e-04
3.30578512e-04
3.30578512e-04
3.30578512e-04
3.30578512e-04
3.30578512e-04
3.30578512e-04
3.30578512e-04
3.30578512e-04
3.30578512e-04
3.30578512e-04
3.30578512e-04
3.30578512e-04
3.30578512e-04
3.30578512e-04
3.30578512e-04
3.30578512e-04
3.30578512e-04
3.30578512e-04
3.30578512e-04
3.30578512e-04
3.30578512e-04
3.30578512e-04
3.30578512e-04
3.30578512e-04
3.30578512e-04
3.30578512e-04
3.30578512e-04
3.30578512e-04
3.30578512e-04
3.30578512e-04
3.30578512e-04
3.30578512e-04
3.30578512e-04
3.30578512e-04
3.30578512e-04
3.30578512e-04
3.30578512e-04
3.30578512e-04
3.30578512e-04
3.30578512e-04
3.30578512e-04
3.30578512e-04
3.30578512e-04
3.30578512e-04
3.30578512e-04
3.30578512e-04
3.30578512e-04
3.30578512e-04
3.30578512e-04
3.30578512e-04
3.30578512e-04
3.30578512e-04
3.30578512e-04
3.30578512e-04
3.30578512e-04
3.30578512e-04
3.30578512e-04
3.30578512e-04
3.30578512e-04
3.30578512e-04
3.30578512e-04
3.30578512e-04
3.30578512e-04
3.30578512e-04
3.30578512e-04
3.30578512e-04
3.30578512e-04
3.30578512e-04
3.30578512e-04
3.30578512e-04
3.30578512e-04
3.30578512e-04
3.30578512e-04
3.30578512e-04
3.30578512e-04
3.30578512e-04
3.30578512e-04
3.30578512e-04
3.30578512e-04
3.30578512e-04
3.30578512e-04
3.30578512e-04
3.30578512e-04
3.30578512e-04
3.30578512e-04
3.30578512e-04
3.30578512e-04
3.30578512e-04
3.30578512e-04
3.30578512e-04
3.30578512e-04
3.30578512e-04
3.30578512e-04
3.30578512e-04
3.30578512e-04
3.30578512e-04
3.30578512e-04
3.30578512e-04
3.30578512e-04
3.30578512e-04
3.30578512e-04
3.30578512e-04
3.30578512e-04
3.30578512e-04
3.30578512e-04
3.30578512e-04
3.30578512e-04
3.30578512e-04
3.30578512e-04
3.30578512e-04
3.30578512e-04
3.30578512e-04
3.30578512e-04
3.30578512e-04
3.30578512e-04
3.30578512e-04
3.30578512e-04
3.30578512e-04
3.30578512e-04
3.30578512e-04
3.30578512e-04
3.30578512e-04
3.30578512e-04
3.30578512e-04
3.30578512e-04
3.30578512e-04
3.30578512e-04
3.30578512e-04
3.30578512e-04
3.30578512e-04
3.30578512e-04
3.30578512e-04
3.30578512e-04
3.30578512e-04
3.30578512e-04
3.30578512e-04
3.30578512e-04
3.30578512e-04
3.30578512e-04
3.30578512e-04
3.30578512e-04
3.30578512e-04
3.30578512e-04
3.30578512e-04
3.30578512e-04
3.30578512e-04
3.30578512e-04
3.30578512e-04
3.30578512e-04
3.30578512e-04
3.30578512e-04
3.30578512e-04
3.30578512e-04
3.30578512e-04
3.30578512e-04
3.30578512e-04
3.30578512e-04
3.30578512e-04
3.30578512e-04
3.30578512e-04
3.30578512e-04
3.30578512e-04
3.30578512e-04
3.30578512e-04
3.30578512e-04
3.30578512e-04
3.30578512e-04
3.30578512e-04
3.30578512e-04
3.30578512e-04
3.30578512e-04
3.30578512e-04
3.30578512e-04
3.30578512e-04
3.30578512e-04
3.30578512e-04
3.30578512e-04
3.30578512e-04
3.30578512e-04
3.30578512e-04
3.30578512e-04
3.30578512e-04
3.30578512e-04
3.30578512e-04
3.30578512e-04
3.30578512e-04
3.30578512e-04
3.30578512e-04
3.30578512e-04
3.30578512e-04
3.30578512e-04
3.30578512e-04
3.30578512e-04
3.30578512e-04
3.30578512e-04
3.30578512e-04
3.30578512e-04
3.30578512e-04
3.30578512e-04
3.30578512e-04
3.30578512e-04
3.30578512e-04
3.30578512e-04
3.30578512e-04
3.30578512e-04
3.30578512e-04
3.30578512e-04
3.30578512e-04
3.30578512e-04
3.30578512e-04
3.30578512e-04
3.30578512e-04
3.30578512e-04
3.30578512e-04
3.30578512e-04
3.30578512e-04
3.30578512e-04
3.30578512e-04
3.30578512e-04
3.30578512e-04
3.30578512e-04
3.30578512e-04
3.30578512e-04
3.30578512e-04
3.30578512e-04
3.30578512e-04
3.30578512e-04
3.30578512e-04
3.30578512e-04
3.30578512e-04
3.30578512e-04
3.30578512e-04
3.30578512e-04
3.30578512e-04
3.30578512e-04
3.30578512e-04
3.30578512e-04
3.30578512e-04
3.30578512e-04
3.30578512e-04
3.30578512e-04
3.30578512e-04
3.30578512e-04
3.30578512e-04
3.30578512e-04
3.30578512e-04
3.30578512e-04
3.30578512e-04
3.30578512e-04
3.30578512e-04
3.30578512e-04
3.30578512e-04
3.30578512e-04
3.30578512e-04
3.30578512e-04
3.30578512e-04
3.30578512e-04
3.30578512e-04
3.30578512e-04
3.30578512e-04
3.30578512e-04
3.30578512e-04
3.30578512e-04
3.30578512e-04
3.30578512e-04
3.30578512e-04
3.30578512e-04
3.30578512e-04
3.30578512e-04
3.30578512e-04
3.30578512e-04
3.30578512e-04
3.30578512e-04
3.30578512e-04
3.30578512e-04
3.30578512e-04
3.30578512e-04
3.30578512e-04
3.30578512e-04
3.30578512e-04
3.30578512e-04
3.30578512e-04
3.30578512e-04
3.30578512e-04
3.30578512e-04
3.30578512e-04
3.30578512e-04
3.30578512e-04
3.30578512e-04
3.30578512e-04
3.30578512e-04
3.30578512e-04
3.30578512e-04
3.30578512e-04
3.30578512e-04
3.30578512e-04
3.30578512e-04
3.30578512e-04
3.30578512e-04
3.30578512e-04
3.30578512e-04
3.30578512e-04
3.30578512e-04
3.30578512e-04
3.30578512e-04
3.30578512e-04
3.30578512e-04
3.30578512e-04
3.30578512e-04
3.30578512e-04
3.30578512e-04
3.30578512e-04
3.30578512e-04
3.30578512e-04
3.30578512e-04
3.30578512e-04
3.30578512e-04
3.30578512e-04
3.30578512e-04
3.30578512e-04
3.30578512e-04
3.30578512e-04
3.30578512e-04
3.30578512e-04
3.30578512e-04
3.30578512e-04
3.30578512e-04
3.30578512e-04
3.30578512e-04
3.30578512e-04
3.30578512e-04
3.30578512e-04
3.30578512e-04
3.30578512e-04
3.30578512e-04
3.30578512e-04
3.30578512e-04
3.30578512e-04
3.30578512e-04
3.30578512e-04
3.30578512e-04
3.30578512e-04
3.30578512e-04
3.30578512e-04
3.30578512e-04
3.30578512e-04
3.30578512e-04
3.30578512e-04
3.30578512e-04
3.30578512e-04
3.30578512e-04
3.30578512e-04
3.30578512e-04
3.30578512e-04
3.30578512e-04
3.30578512e-04
3.30578512e-04
3.30578512e-04
3.30578512e-04
3.30578512e-04
3.30578512e-04
3.30578512e-04
3.30578512e-04
3.30578512e-04
3.30578512e-04
3.30578512e-04
3.30578512e-04
3.30578512e-04
3.30578512e-04
3.30578512e-04
3.30578512e-04
3.30578512e-04
3.30578512e-04
3.30578512e-04
3.30578512e-04
3.30578512e-04
3.30578512e-04
3.30578512e-04
3.30578512e-04
3.30578512e-04
3.30578512e-04
3.30578512e-04
3.30578512e-04
3.30578512e-04
3.30578512e-04
3.30578512e-04
3.30578512e-04
3.30578512e-04
3.30578512e-04
3.30578512e-04
3.30578512e-04
3.30578512e-04
3.30578512e-04
3.30578512e-04
3.30578512e-04
3.30578512e-04
3.30578512e-04
3.30578512e-04
3.30578512e-04
3.30578512e-04
3.30578512e-04
3.30578512e-04
3.30578512e-04
3.30578512e-04
3.30578512e-04
3.30578512e-04
3.30578512e-04
3.30578512e-04
3.30578512e-04
3.30578512e-04
3.30578512e-04
3.30578512e-04
3.30578512e-04
3.30578512e-04
3.30578512e-04
3.30578512e-04
3.30578512e-04
3.30578512e-04
3.30578512e-04
3.30578512e-04
3.30578512e-04
3.30578512e-04
3.30578512e-04
3.30578512e-04
3.30578512e-04
3.30578512e-04
3.30578512e-04
3.30578512e-04
3.30578512e-04
3.30578512e-04
3.30578512e-04
3.30578512e-04
3.30578512e-04
3.30578512e-04
3.30578512e-04
3.30578512e-04
3.30578512e-04
3.30578512e-04
3.30578512e-04
3.30578512e-04
3.30578512e-04
3.30578512e-04
3.30578512e-04
3.30578512e-04
3.30578512e-04
3.30578512e-04
3.30578512e-04
3.30578512e-04
3.30578512e-04
3.30578512e-04
3.30578512e-04
3.30578512e-04
3.30578512e-04
3.30578512e-04
3.30578512e-04
3.30578512e-04
3.30578512e-04
3.30578512e-04
3.30578512e-04
3.30578512e-04
3.30578512e-04
3.30578512e-04
3.30578512e-04
3.30578512e-04
3.30578512e-04
3.30578512e-04
3.30578512e-04
3.30578512e-04
3.30578512e-04
3.30578512e-04
3.30578512e-04
3.30578512e-04
3.30578512e-04
3.30578512e-04
3.30578512e-04
3.30578512e-04
3.30578512e-04
3.30578512e-04
3.30578512e-04
3.30578512e-04
3.30578512e-04
3.30578512e-04
3.30578512e-04
3.30578512e-04
3.30578512e-04
3.30578512e-04
3.30578512e-04
3.30578512e-04
3.30578512e-04
3.30578512e-04
3.30578512e-04
3.30578512e-04
3.30578512e-04
3.30578512e-04
3.30578512e-04
3.30578512e-04
3.30578512e-04
3.30578512e-04
3.30578512e-04
3.30578512e-04
3.30578512e-04
3.30578512e-04
3.30578512e-04
3.30578512e-04
3.30578512e-04
3.30578512e-04
3.30578512e-04
3.30578512e-04
3.30578512e-04
3.30578512e-04
3.30578512e-04
3.30578512e-04
3.30578512e-04
3.30578512e-04
3.30578512e-04
3.30578512e-04
3.30578512e-04
3.30578512e-04
3.30578512e-04
3.30578512e-04
3.30578512e-04
3.30578512e-04
3.30578512e-04
3.30578512e-04
3.30578512e-04
3.30578512e-04
3.30578512e-04
3.30578512e-04
3.30578512e-04
3.30578512e-04
3.30578512e-04
3.30578512e-04
3.30578512e-04
3.30578512e-04
3.30578512e-04
3.30578512e-04
3.30578512e-04
3.30578512e-04
3.30578512e-04
3.30578512e-04
3.30578512e-04
3.30578512e-04
3.30578512e-04
3.30578512e-04
3.30578512e-04
3.30578512e-04
3.30578512e-04
3.30578512e-04
3.30578512e-04
3.30578512e-04
3.30578512e-04
3.30578512e-04
3.30578512e-04
3.30578512e-04
3.30578512e-04
3.30578512e-04
3.30578512e-04
3.30578512e-04
3.30578512e-04
3.30578512e-04
3.30578512e-04
3.30578512e-04
3.30578512e-04
3.30578512e-04
3.30578512e-04
3.30578512e-04
3.30578512e-04
3.30578512e-04
3.30578512e-04
3.30578512e-04
3.30578512e-04
3.30578512e-04
3.30578512e-04
3.30578512e-04
3.30578512e-04
3.30578512e-04
3.30578512e-04
3.30578512e-04
3.30578512e-04
3.30578512e-04
3.30578512e-04
3.30578512e-04
3.30578512e-04
3.30578512e-04
3.30578512e-04
3.30578512e-04
3.30578512e-04
3.30578512e-04
3.30578512e-04
3.30578512e-04
3.30578512e-04
3.30578512e-04
3.30578512e-04
3.30578512e-04
3.30578512e-04
3.30578512e-04
3.30578512e-04
3.30578512e-04
3.30578512e-04
3.30578512e-04
3.30578512e-04
3.30578512e-04
3.30578512e-04
3.30578512e-04
3.30578512e-04
3.30578512e-04
3.30578512e-04
3.30578512e-04
3.30578512e-04
3.30578512e-04
3.30578512e-04
3.30578512e-04
3.30578512e-04
3.30578512e-04
3.30578512e-04
3.30578512e-04
3.30578512e-04
3.30578512e-04
3.30578512e-04
3.30578512e-04
3.30578512e-04
3.30578512e-04
3.30578512e-04
3.30578512e-04
3.30578512e-04
3.30578512e-04
3.30578512e-04
3.30578512e-04
3.30578512e-04
3.30578512e-04
3.30578512e-04
3.30578512e-04
3.30578512e-04
3.30578512e-04
3.30578512e-04
3.30578512e-04
3.30578512e-04
3.30578512e-04
3.30578512e-04
3.30578512e-04
3.30578512e-04
3.30578512e-04
3.30578512e-04
3.30578512e-04
3.30578512e-04
3.30578512e-04
3.30578512e-04
3.30578512e-04
3.30578512e-04
3.30578512e-04
3.30578512e-04
3.30578512e-04
3.30578512e-04
3.30578512e-04
3.30578512e-04
3.30578512e-04
3.30578512e-04
3.30578512e-04
3.30578512e-04
3.30578512e-04
3.30578512e-04
3.30578512e-04
3.30578512e-04
3.30578512e-04
3.30578512e-04
3.30578512e-04
3.30578512e-04
3.30578512e-04
3.30578512e-04
3.30578512e-04
3.30578512e-04
3.30578512e-04
3.30578512e-04
3.30578512e-04
3.30578512e-04
3.30578512e-04
3.30578512e-04
3.30578512e-04
3.30578512e-04
3.30578512e-04
3.30578512e-04
3.30578512e-04
3.30578512e-04
3.30578512e-04
3.30578512e-04
3.30578512e-04
3.30578512e-04
3.30578512e-04
3.30578512e-04
3.30578512e-04
3.30578512e-04
3.30578512e-04
3.30578512e-04
3.30578512e-04
3.30578512e-04
3.30578512e-04
3.30578512e-04
3.30578512e-04
3.30578512e-04
3.30578512e-04
3.30578512e-04
3.30578512e-04
3.30578512e-04
3.30578512e-04
3.30578512e-04
3.30578512e-04
3.30578512e-04
3.30578512e-04
3.30578512e-04
3.30578512e-04
3.30578512e-04
3.30578512e-04
3.30578512e-04
3.30578512e-04
3.30578512e-04
3.30578512e-04
3.30578512e-04
3.30578512e-04
3.30578512e-04
3.30578512e-04
3.30578512e-04
3.30578512e-04
3.30578512e-04
3.30578512e-04
3.30578512e-04
3.30578512e-04
3.30578512e-04
3.30578512e-04
3.30578512e-04
3.30578512e-04
3.30578512e-04
3.30578512e-04
3.30578512e-04
3.30578512e-04
3.30578512e-04
3.30578512e-04
3.30578512e-04
3.30578512e-04
3.30578512e-04
3.30578512e-04
3.30578512e-04
3.30578512e-04
3.30578512e-04
3.30578512e-04
3.30578512e-04
3.30578512e-04
3.30578512e-04
3.30578512e-04
3.30578512e-04
3.30578512e-04
3.30578512e-04
3.30578512e-04
3.30578512e-04
3.30578512e-04
3.30578512e-04
3.30578512e-04
3.30578512e-04
3.30578512e-04
3.30578512e-04
3.30578512e-04
3.30578512e-04
3.30578512e-04
3.30578512e-04
3.30578512e-04
3.30578512e-04
3.30578512e-04
3.30578512e-04
3.30578512e-04
3.30578512e-04
3.30578512e-04
3.30578512e-04
3.30578512e-04
3.30578512e-04
3.30578512e-04
3.30578512e-04
3.30578512e-04
3.30578512e-04
3.30578512e-04
3.30578512e-04
3.30578512e-04
3.30578512e-04
3.30578512e-04
3.30578512e-04
3.30578512e-04
3.30578512e-04
3.30578512e-04
3.30578512e-04
3.30578512e-04
3.30578512e-04
3.30578512e-04
3.30578512e-04
3.30578512e-04
3.30578512e-04
3.30578512e-04
3.30578512e-04
3.30578512e-04
3.30578512e-04
3.30578512e-04
3.30578512e-04
3.30578512e-04
3.30578512e-04
3.30578512e-04
3.30578512e-04
3.30578512e-04
3.30578512e-04
3.30578512e-04
3.30578512e-04
3.30578512e-04
3.30578512e-04
3.30578512e-04
3.30578512e-04
3.30578512e-04
3.30578512e-04
3.30578512e-04
3.30578512e-04
3.30578512e-04
3.30578512e-04
3.30578512e-04
3.30578512e-04
3.30578512e-04
3.30578512e-04
3.30578512e-04
3.30578512e-04
3.30578512e-04
3.30578512e-04
3.30578512e-04
3.30578512e-04
3.30578512e-04
3.30578512e-04
3.30578512e-04
3.30578512e-04
3.30578512e-04
3.30578512e-04
3.30578512e-04
3.30578512e-04
3.30578512e-04
3.30578512e-04
3.30578512e-04
3.30578512e-04
3.30578512e-04
3.30578512e-04
3.30578512e-04
3.30578512e-04
3.30578512e-04
3.30578512e-04
3.30578512e-04
3.30578512e-04
3.30578512e-04
3.30578512e-04
3.30578512e-04
3.30578512e-04
3.30578512e-04
3.30578512e-04
3.30578512e-04
3.30578512e-04
3.30578512e-04
3.30578512e-04
3.30578512e-04
3.30578512e-04
3.30578512e-04
3.30578512e-04
3.30578512e-04
3.30578512e-04
3.30578512e-04
3.30578512e-04
3.30578512e-04
3.30578512e-04
3.30578512e-04
3.30578512e-04
3.30578512e-04
3.30578512e-04
3.30578512e-04
3.30578512e-04
3.30578512e-04
3.30578512e-04
3.30578512e-04
3.30578512e-04
3.30578512e-04
3.30578512e-04
3.30578512e-04
3.30578512e-04
3.30578512e-04
3.30578512e-04
3.30578512e-04
3.30578512e-04
3.30578512e-04
3.30578512e-04
3.30578512e-04
3.30578512e-04
3.30578512e-04
3.30578512e-04
3.30578512e-04
3.30578512e-04
3.30578512e-04
3.30578512e-04
3.30578512e-04
3.30578512e-04
3.30578512e-04
3.30578512e-04
3.30578512e-04
3.30578512e-04
3.30578512e-04
3.30578512e-04
3.30578512e-04
3.30578512e-04
3.30578512e-04
3.30578512e-04
3.30578512e-04
3.30578512e-04
3.30578512e-04
3.30578512e-04
3.30578512e-04
3.30578512e-04
3.30578512e-04
3.30578512e-04
3.30578512e-04
3.30578512e-04
3.30578512e-04
3.30578512e-04
3.30578512e-04
3.30578512e-04
3.30578512e-04
3.30578512e-04
3.30578512e-04
3.30578512e-04
3.30578512e-04
3.30578512e-04
3.30578512e-04
3.30578512e-04
3.30578512e-04
3.30578512e-04
3.30578512e-04
3.30578512e-04
3.30578512e-04
3.30578512e-04
3.30578512e-04
3.30578512e-04
3.30578512e-04
3.30578512e-04
3.30578512e-04
3.30578512e-04
3.30578512e-04
3.30578512e-04
3.30578512e-04
3.30578512e-04
3.30578512e-04
3.30578512e-04
3.30578512e-04
3.30578512e-04
3.30578512e-04
3.30578512e-04
3.30578512e-04
3.30578512e-04
3.30578512e-04
3.30578512e-04
3.30578512e-04
3.30578512e-04
3.30578512e-04
3.30578512e-04
3.30578512e-04
3.30578512e-04
3.30578512e-04
3.30578512e-04
3.30578512e-04
3.30578512e-04
3.30578512e-04
3.30578512e-04
3.30578512e-04
3.30578512e-04
3.30578512e-04
3.30578512e-04
3.30578512e-04
3.30578512e-04
3.30578512e-04
3.30578512e-04
3.30578512e-04
3.30578512e-04
3.30578512e-04
3.30578512e-04
3.30578512e-04
3.30578512e-04
3.30578512e-04
3.30578512e-04
3.30578512e-04
3.30578512e-04
3.30578512e-04
3.30578512e-04
3.30578512e-04
3.30578512e-04
3.30578512e-04
3.30578512e-04
3.30578512e-04
3.30578512e-04
3.30578512e-04
3.30578512e-04
3.30578512e-04
3.30578512e-04
3.30578512e-04
3.30578512e-04
3.30578512e-04
3.30578512e-04
3.30578512e-04
3.30578512e-04
3.30578512e-04
3.30578512e-04
3.30578512e-04
3.30578512e-04
3.30578512e-04
3.30578512e-04
3.30578512e-04
3.30578512e-04
3.30578512e-04
3.30578512e-04
3.30578512e-04
3.30578512e-04
3.30578512e-04
3.30578512e-04
3.30578512e-04
3.30578512e-04
3.30578512e-04
3.30578512e-04
3.30578512e-04
3.30578512e-04
3.30578512e-04
3.30578512e-04
3.30578512e-04
3.30578512e-04
3.30578512e-04
3.30578512e-04
3.30578512e-04
3.30578512e-04
3.30578512e-04
3.30578512e-04
3.30578512e-04
3.30578512e-04
3.30578512e-04
3.30578512e-04
3.30578512e-04
3.30578512e-04
3.30578512e-04
3.30578512e-04
3.30578512e-04
3.30578512e-04
3.30578512e-04
3.30578512e-04
3.30578512e-04
3.30578512e-04
3.30578512e-04
3.30578512e-04
3.30578512e-04
3.30578512e-04
3.30578512e-04
3.30578512e-04
3.30578512e-04
3.30578512e-04
3.30578512e-04
3.30578512e-04
3.30578512e-04
3.30578512e-04
3.30578512e-04
3.30578512e-04
3.30578512e-04
3.30578512e-04
3.30578512e-04
3.30578512e-04
3.30578512e-04
3.30578512e-04
3.30578512e-04
3.30578512e-04
3.30578512e-04
3.30578512e-04
3.30578512e-04
3.30578512e-04
3.30578512e-04
3.30578512e-04
3.30578512e-04
3.30578512e-04
3.30578512e-04
3.30578512e-04
3.30578512e-04
3.30578512e-04
3.30578512e-04
3.30578512e-04
3.30578512e-04
3.30578512e-04
3.30578512e-04
3.30578512e-04
3.30578512e-04
3.30578512e-04
3.30578512e-04
3.30578512e-04
3.30578512e-04
3.30578512e-04
3.30578512e-04
3.30578512e-04
3.30578512e-04
3.30578512e-04
3.30578512e-04
3.30578512e-04
3.30578512e-04
3.30578512e-04
3.30578512e-04
3.30578512e-04
3.30578512e-04
3.30578512e-04
3.30578512e-04
3.30578512e-04
3.30578512e-04
3.30578512e-04
3.30578512e-04
3.30578512e-04
3.30578512e-04
3.30578512e-04
3.30578512e-04
3.30578512e-04
3.30578512e-04
3.30578512e-04
3.30578512e-04
3.30578512e-04
3.30578512e-04
3.30578512e-04
3.30578512e-04
3.30578512e-04
3.30578512e-04
3.30578512e-04
3.30578512e-04
3.30578512e-04
3.30578512e-04
3.30578512e-04
3.30578512e-04
3.30578512e-04
3.30578512e-04
3.30578512e-04
3.30578512e-04
3.30578512e-04
3.30578512e-04
3.30578512e-04
3.30578512e-04
3.30578512e-04
3.30578512e-04
3.30578512e-04
3.30578512e-04
3.30578512e-04
3.30578512e-04
3.30578512e-04
3.30578512e-04
3.30578512e-04
3.30578512e-04
3.30578512e-04
3.30578512e-04
3.30578512e-04
3.30578512e-04
3.30578512e-04
3.30578512e-04
3.30578512e-04
3.30578512e-04
3.30578512e-04
3.30578512e-04
3.30578512e-04
3.30578512e-04
3.30578512e-04
3.30578512e-04
3.30578512e-04
3.30578512e-04
3.30578512e-04
3.30578512e-04
3.30578512e-04
3.30578512e-04
3.30578512e-04
3.30578512e-04
3.30578512e-04
3.30578512e-04
3.30578512e-04
3.30578512e-04
3.30578512e-04
3.30578512e-04
3.30578512e-04
3.30578512e-04
3.30578512e-04
3.30578512e-04
3.30578512e-04
3.30578512e-04
3.30578512e-04
3.30578512e-04
3.30578512e-04
3.30578512e-04
3.30578512e-04
3.30578512e-04
3.30578512e-04
3.30578512e-04
3.30578512e-04
3.30578512e-04
3.30578512e-04
3.30578512e-04
3.30578512e-04
3.30578512e-04
3.30578512e-04
3.30578512e-04
3.30578512e-04
3.30578512e-04
3.30578512e-04
3.30578512e-04
3.30578512e-04
3.30578512e-04
3.30578512e-04
3.30578512e-04
3.30578512e-04
3.30578512e-04
3.30578512e-04
3.30578512e-04
3.30578512e-04
3.30578512e-04
3.30578512e-04
3.30578512e-04
3.30578512e-04
3.30578512e-04
3.30578512e-04
3.30578512e-04
3.30578512e-04
3.30578512e-04
3.30578512e-04
3.30578512e-04
3.30578512e-04
3.30578512e-04
3.30578512e-04
3.30578512e-04
3.30578512e-04
3.30578512e-04
3.30578512e-04
3.30578512e-04
3.30578512e-04
3.30578512e-04
3.30578512e-04
3.30578512e-04
3.30578512e-04
3.30578512e-04
3.30578512e-04
3.30578512e-04
3.30578512e-04
3.30578512e-04
3.30578512e-04
3.30578512e-04
3.30578512e-04
3.30578512e-04
3.30578512e-04
3.30578512e-04
3.30578512e-04
3.30578512e-04
3.30578512e-04
3.30578512e-04
3.30578512e-04
3.30578512e-04
3.30578512e-04
3.30578512e-04
3.30578512e-04
3.30578512e-04
3.30578512e-04
3.30578512e-04
3.30578512e-04
3.30578512e-04
3.30578512e-04
3.30578512e-04
3.30578512e-04
3.30578512e-04
3.30578512e-04
3.30578512e-04
3.30578512e-04
3.30578512e-04
3.30578512e-04
3.30578512e-04
3.30578512e-04
3.30578512e-04
3.30578512e-04
3.30578512e-04
3.30578512e-04
3.30578512e-04
3.30578512e-04
3.30578512e-04
3.30578512e-04
3.30578512e-04
3.30578512e-04
3.30578512e-04
3.30578512e-04
3.30578512e-04
3.30578512e-04
3.30578512e-04
3.30578512e-04
3.30578512e-04
3.30578512e-04
3.30578512e-04
3.30578512e-04
3.30578512e-04
3.30578512e-04
3.30578512e-04
3.30578512e-04
3.30578512e-04
3.30578512e-04
3.30578512e-04
3.30578512e-04
3.30578512e-04
3.30578512e-04
3.30578512e-04
3.30578512e-04
3.30578512e-04
3.30578512e-04
