%%MatrixMarket matrix coordinate real symmetric
% pde2961
% Bai group: 2D Laplacian on 54x54 grid. Kind: 2D/3D Problem. SPD.
2916 2916 8640
1 1 4.0
1 2 -1.0
1 55 -1.0
2 2 4.0
2 3 -1.0
2 56 -1.0
3 3 4.0
3 4 -1.0
3 57 -1.0
4 4 4.0
4 5 -1.0
4 58 -1.0
5 5 4.0
5 6 -1.0
5 59 -1.0
6 6 4.0
6 7 -1.0
6 60 -1.0
7 7 4.0
7 8 -1.0
7 61 -1.0
8 8 4.0
8 9 -1.0
8 62 -1.0
9 9 4.0
9 10 -1.0
9 63 -1.0
10 10 4.0
10 11 -1.0
10 64 -1.0
11 11 4.0
11 12 -1.0
11 65 -1.0
12 12 4.0
12 13 -1.0
12 66 -1.0
13 13 4.0
13 14 -1.0
13 67 -1.0
14 14 4.0
14 15 -1.0
14 68 -1.0
15 15 4.0
15 16 -1.0
15 69 -1.0
16 16 4.0
16 17 -1.0
16 70 -1.0
17 17 4.0
17 18 -1.0
17 71 -1.0
18 18 4.0
18 19 -1.0
18 72 -1.0
19 19 4.0
19 20 -1.0
19 73 -1.0
20 20 4.0
20 21 -1.0
20 74 -1.0
21 21 4.0
21 22 -1.0
21 75 -1.0
22 22 4.0
22 23 -1.0
22 76 -1.0
23 23 4.0
23 24 -1.0
23 77 -1.0
24 24 4.0
24 25 -1.0
24 78 -1.0
25 25 4.0
25 26 -1.0
25 79 -1.0
26 26 4.0
26 27 -1.0
26 80 -1.0
27 27 4.0
27 28 -1.0
27 81 -1.0
28 28 4.0
28 29 -1.0
28 82 -1.0
29 29 4.0
29 30 -1.0
29 83 -1.0
30 30 4.0
30 31 -1.0
30 84 -1.0
31 31 4.0
31 32 -1.0
31 85 -1.0
32 32 4.0
32 33 -1.0
32 86 -1.0
33 33 4.0
33 34 -1.0
33 87 -1.0
34 34 4.0
34 35 -1.0
34 88 -1.0
35 35 4.0
35 36 -1.0
35 89 -1.0
36 36 4.0
36 37 -1.0
36 90 -1.0
37 37 4.0
37 38 -1.0
37 91 -1.0
38 38 4.0
38 39 -1.0
38 92 -1.0
39 39 4.0
39 40 -1.0
39 93 -1.0
40 40 4.0
40 41 -1.0
40 94 -1.0
41 41 4.0
41 42 -1.0
41 95 -1.0
42 42 4.0
42 43 -1.0
42 96 -1.0
43 43 4.0
43 44 -1.0
43 97 -1.0
44 44 4.0
44 45 -1.0
44 98 -1.0
45 45 4.0
45 46 -1.0
45 99 -1.0
46 46 4.0
46 47 -1.0
46 100 -1.0
47 47 4.0
47 48 -1.0
47 101 -1.0
48 48 4.0
48 49 -1.0
48 102 -1.0
49 49 4.0
49 50 -1.0
49 103 -1.0
50 50 4.0
50 51 -1.0
50 104 -1.0
51 51 4.0
51 52 -1.0
51 105 -1.0
52 52 4.0
52 53 -1.0
52 106 -1.0
53 53 4.0
53 54 -1.0
53 107 -1.0
54 54 4.0
54 108 -1.0
55 55 4.0
55 56 -1.0
55 109 -1.0
56 56 4.0
56 57 -1.0
56 110 -1.0
57 57 4.0
57 58 -1.0
57 111 -1.0
58 58 4.0
58 59 -1.0
58 112 -1.0
59 59 4.0
59 60 -1.0
59 113 -1.0
60 60 4.0
60 61 -1.0
60 114 -1.0
61 61 4.0
61 62 -1.0
61 115 -1.0
62 62 4.0
62 63 -1.0
62 116 -1.0
63 63 4.0
63 64 -1.0
63 117 -1.0
64 64 4.0
64 65 -1.0
64 118 -1.0
65 65 4.0
65 66 -1.0
65 119 -1.0
66 66 4.0
66 67 -1.0
66 120 -1.0
67 67 4.0
67 68 -1.0
67 121 -1.0
68 68 4.0
68 69 -1.0
68 122 -1.0
69 69 4.0
69 70 -1.0
69 123 -1.0
70 70 4.0
70 71 -1.0
70 124 -1.0
71 71 4.0
71 72 -1.0
71 125 -1.0
72 72 4.0
72 73 -1.0
72 126 -1.0
73 73 4.0
73 74 -1.0
73 127 -1.0
74 74 4.0
74 75 -1.0
74 128 -1.0
75 75 4.0
75 76 -1.0
75 129 -1.0
76 76 4.0
76 77 -1.0
76 130 -1.0
77 77 4.0
77 78 -1.0
77 131 -1.0
78 78 4.0
78 79 -1.0
78 132 -1.0
79 79 4.0
79 80 -1.0
79 133 -1.0
80 80 4.0
80 81 -1.0
80 134 -1.0
81 81 4.0
81 82 -1.0
81 135 -1.0
82 82 4.0
82 83 -1.0
82 136 -1.0
83 83 4.0
83 84 -1.0
83 137 -1.0
84 84 4.0
84 85 -1.0
84 138 -1.0
85 85 4.0
85 86 -1.0
85 139 -1.0
86 86 4.0
86 87 -1.0
86 140 -1.0
87 87 4.0
87 88 -1.0
87 141 -1.0
88 88 4.0
88 89 -1.0
88 142 -1.0
89 89 4.0
89 90 -1.0
89 143 -1.0
90 90 4.0
90 91 -1.0
90 144 -1.0
91 91 4.0
91 92 -1.0
91 145 -1.0
92 92 4.0
92 93 -1.0
92 146 -1.0
93 93 4.0
93 94 -1.0
93 147 -1.0
94 94 4.0
94 95 -1.0
94 148 -1.0
95 95 4.0
95 96 -1.0
95 149 -1.0
96 96 4.0
96 97 -1.0
96 150 -1.0
97 97 4.0
97 98 -1.0
97 151 -1.0
98 98 4.0
98 99 -1.0
98 152 -1.0
99 99 4.0
99 100 -1.0
99 153 -1.0
100 100 4.0
100 101 -1.0
100 154 -1.0
101 101 4.0
101 102 -1.0
101 155 -1.0
102 102 4.0
102 103 -1.0
102 156 -1.0
103 103 4.0
103 104 -1.0
103 157 -1.0
104 104 4.0
104 105 -1.0
104 158 -1.0
105 105 4.0
105 106 -1.0
105 159 -1.0
106 106 4.0
106 107 -1.0
106 160 -1.0
107 107 4.0
107 108 -1.0
107 161 -1.0
108 108 4.0
108 162 -1.0
109 109 4.0
109 110 -1.0
109 163 -1.0
110 110 4.0
110 111 -1.0
110 164 -1.0
111 111 4.0
111 112 -1.0
111 165 -1.0
112 112 4.0
112 113 -1.0
112 166 -1.0
113 113 4.0
113 114 -1.0
113 167 -1.0
114 114 4.0
114 115 -1.0
114 168 -1.0
115 115 4.0
115 116 -1.0
115 169 -1.0
116 116 4.0
116 117 -1.0
116 170 -1.0
117 117 4.0
117 118 -1.0
117 171 -1.0
118 118 4.0
118 119 -1.0
118 172 -1.0
119 119 4.0
119 120 -1.0
119 173 -1.0
120 120 4.0
120 121 -1.0
120 174 -1.0
121 121 4.0
121 122 -1.0
121 175 -1.0
122 122 4.0
122 123 -1.0
122 176 -1.0
123 123 4.0
123 124 -1.0
123 177 -1.0
124 124 4.0
124 125 -1.0
124 178 -1.0
125 125 4.0
125 126 -1.0
125 179 -1.0
126 126 4.0
126 127 -1.0
126 180 -1.0
127 127 4.0
127 128 -1.0
127 181 -1.0
128 128 4.0
128 129 -1.0
128 182 -1.0
129 129 4.0
129 130 -1.0
129 183 -1.0
130 130 4.0
130 131 -1.0
130 184 -1.0
131 131 4.0
131 132 -1.0
131 185 -1.0
132 132 4.0
132 133 -1.0
132 186 -1.0
133 133 4.0
133 134 -1.0
133 187 -1.0
134 134 4.0
134 135 -1.0
134 188 -1.0
135 135 4.0
135 136 -1.0
135 189 -1.0
136 136 4.0
136 137 -1.0
136 190 -1.0
137 137 4.0
137 138 -1.0
137 191 -1.0
138 138 4.0
138 139 -1.0
138 192 -1.0
139 139 4.0
139 140 -1.0
139 193 -1.0
140 140 4.0
140 141 -1.0
140 194 -1.0
141 141 4.0
141 142 -1.0
141 195 -1.0
142 142 4.0
142 143 -1.0
142 196 -1.0
143 143 4.0
143 144 -1.0
143 197 -1.0
144 144 4.0
144 145 -1.0
144 198 -1.0
145 145 4.0
145 146 -1.0
145 199 -1.0
146 146 4.0
146 147 -1.0
146 200 -1.0
147 147 4.0
147 148 -1.0
147 201 -1.0
148 148 4.0
148 149 -1.0
148 202 -1.0
149 149 4.0
149 150 -1.0
149 203 -1.0
150 150 4.0
150 151 -1.0
150 204 -1.0
151 151 4.0
151 152 -1.0
151 205 -1.0
152 152 4.0
152 153 -1.0
152 206 -1.0
153 153 4.0
153 154 -1.0
153 207 -1.0
154 154 4.0
154 155 -1.0
154 208 -1.0
155 155 4.0
155 156 -1.0
155 209 -1.0
156 156 4.0
156 157 -1.0
156 210 -1.0
157 157 4.0
157 158 -1.0
157 211 -1.0
158 158 4.0
158 159 -1.0
158 212 -1.0
159 159 4.0
159 160 -1.0
159 213 -1.0
160 160 4.0
160 161 -1.0
160 214 -1.0
161 161 4.0
161 162 -1.0
161 215 -1.0
162 162 4.0
162 216 -1.0
163 163 4.0
163 164 -1.0
163 217 -1.0
164 164 4.0
164 165 -1.0
164 218 -1.0
165 165 4.0
165 166 -1.0
165 219 -1.0
166 166 4.0
166 167 -1.0
166 220 -1.0
167 167 4.0
167 168 -1.0
167 221 -1.0
168 168 4.0
168 169 -1.0
168 222 -1.0
169 169 4.0
169 170 -1.0
169 223 -1.0
170 170 4.0
170 171 -1.0
170 224 -1.0
171 171 4.0
171 172 -1.0
171 225 -1.0
172 172 4.0
172 173 -1.0
172 226 -1.0
173 173 4.0
173 174 -1.0
173 227 -1.0
174 174 4.0
174 175 -1.0
174 228 -1.0
175 175 4.0
175 176 -1.0
175 229 -1.0
176 176 4.0
176 177 -1.0
176 230 -1.0
177 177 4.0
177 178 -1.0
177 231 -1.0
178 178 4.0
178 179 -1.0
178 232 -1.0
179 179 4.0
179 180 -1.0
179 233 -1.0
180 180 4.0
180 181 -1.0
180 234 -1.0
181 181 4.0
181 182 -1.0
181 235 -1.0
182 182 4.0
182 183 -1.0
182 236 -1.0
183 183 4.0
183 184 -1.0
183 237 -1.0
184 184 4.0
184 185 -1.0
184 238 -1.0
185 185 4.0
185 186 -1.0
185 239 -1.0
186 186 4.0
186 187 -1.0
186 240 -1.0
187 187 4.0
187 188 -1.0
187 241 -1.0
188 188 4.0
188 189 -1.0
188 242 -1.0
189 189 4.0
189 190 -1.0
189 243 -1.0
190 190 4.0
190 191 -1.0
190 244 -1.0
191 191 4.0
191 192 -1.0
191 245 -1.0
192 192 4.0
192 193 -1.0
192 246 -1.0
193 193 4.0
193 194 -1.0
193 247 -1.0
194 194 4.0
194 195 -1.0
194 248 -1.0
195 195 4.0
195 196 -1.0
195 249 -1.0
196 196 4.0
196 197 -1.0
196 250 -1.0
197 197 4.0
197 198 -1.0
197 251 -1.0
198 198 4.0
198 199 -1.0
198 252 -1.0
199 199 4.0
199 200 -1.0
199 253 -1.0
200 200 4.0
200 201 -1.0
200 254 -1.0
201 201 4.0
201 202 -1.0
201 255 -1.0
202 202 4.0
202 203 -1.0
202 256 -1.0
203 203 4.0
203 204 -1.0
203 257 -1.0
204 204 4.0
204 205 -1.0
204 258 -1.0
205 205 4.0
205 206 -1.0
205 259 -1.0
206 206 4.0
206 207 -1.0
206 260 -1.0
207 207 4.0
207 208 -1.0
207 261 -1.0
208 208 4.0
208 209 -1.0
208 262 -1.0
209 209 4.0
209 210 -1.0
209 263 -1.0
210 210 4.0
210 211 -1.0
210 264 -1.0
211 211 4.0
211 212 -1.0
211 265 -1.0
212 212 4.0
212 213 -1.0
212 266 -1.0
213 213 4.0
213 214 -1.0
213 267 -1.0
214 214 4.0
214 215 -1.0
214 268 -1.0
215 215 4.0
215 216 -1.0
215 269 -1.0
216 216 4.0
216 270 -1.0
217 217 4.0
217 218 -1.0
217 271 -1.0
218 218 4.0
218 219 -1.0
218 272 -1.0
219 219 4.0
219 220 -1.0
219 273 -1.0
220 220 4.0
220 221 -1.0
220 274 -1.0
221 221 4.0
221 222 -1.0
221 275 -1.0
222 222 4.0
222 223 -1.0
222 276 -1.0
223 223 4.0
223 224 -1.0
223 277 -1.0
224 224 4.0
224 225 -1.0
224 278 -1.0
225 225 4.0
225 226 -1.0
225 279 -1.0
226 226 4.0
226 227 -1.0
226 280 -1.0
227 227 4.0
227 228 -1.0
227 281 -1.0
228 228 4.0
228 229 -1.0
228 282 -1.0
229 229 4.0
229 230 -1.0
229 283 -1.0
230 230 4.0
230 231 -1.0
230 284 -1.0
231 231 4.0
231 232 -1.0
231 285 -1.0
232 232 4.0
232 233 -1.0
232 286 -1.0
233 233 4.0
233 234 -1.0
233 287 -1.0
234 234 4.0
234 235 -1.0
234 288 -1.0
235 235 4.0
235 236 -1.0
235 289 -1.0
236 236 4.0
236 237 -1.0
236 290 -1.0
237 237 4.0
237 238 -1.0
237 291 -1.0
238 238 4.0
238 239 -1.0
238 292 -1.0
239 239 4.0
239 240 -1.0
239 293 -1.0
240 240 4.0
240 241 -1.0
240 294 -1.0
241 241 4.0
241 242 -1.0
241 295 -1.0
242 242 4.0
242 243 -1.0
242 296 -1.0
243 243 4.0
243 244 -1.0
243 297 -1.0
244 244 4.0
244 245 -1.0
244 298 -1.0
245 245 4.0
245 246 -1.0
245 299 -1.0
246 246 4.0
246 247 -1.0
246 300 -1.0
247 247 4.0
247 248 -1.0
247 301 -1.0
248 248 4.0
248 249 -1.0
248 302 -1.0
249 249 4.0
249 250 -1.0
249 303 -1.0
250 250 4.0
250 251 -1.0
250 304 -1.0
251 251 4.0
251 252 -1.0
251 305 -1.0
252 252 4.0
252 253 -1.0
252 306 -1.0
253 253 4.0
253 254 -1.0
253 307 -1.0
254 254 4.0
254 255 -1.0
254 308 -1.0
255 255 4.0
255 256 -1.0
255 309 -1.0
256 256 4.0
256 257 -1.0
256 310 -1.0
257 257 4.0
257 258 -1.0
257 311 -1.0
258 258 4.0
258 259 -1.0
258 312 -1.0
259 259 4.0
259 260 -1.0
259 313 -1.0
260 260 4.0
260 261 -1.0
260 314 -1.0
261 261 4.0
261 262 -1.0
261 315 -1.0
262 262 4.0
262 263 -1.0
262 316 -1.0
263 263 4.0
263 264 -1.0
263 317 -1.0
264 264 4.0
264 265 -1.0
264 318 -1.0
265 265 4.0
265 266 -1.0
265 319 -1.0
266 266 4.0
266 267 -1.0
266 320 -1.0
267 267 4.0
267 268 -1.0
267 321 -1.0
268 268 4.0
268 269 -1.0
268 322 -1.0
269 269 4.0
269 270 -1.0
269 323 -1.0
270 270 4.0
270 324 -1.0
271 271 4.0
271 272 -1.0
271 325 -1.0
272 272 4.0
272 273 -1.0
272 326 -1.0
273 273 4.0
273 274 -1.0
273 327 -1.0
274 274 4.0
274 275 -1.0
274 328 -1.0
275 275 4.0
275 276 -1.0
275 329 -1.0
276 276 4.0
276 277 -1.0
276 330 -1.0
277 277 4.0
277 278 -1.0
277 331 -1.0
278 278 4.0
278 279 -1.0
278 332 -1.0
279 279 4.0
279 280 -1.0
279 333 -1.0
280 280 4.0
280 281 -1.0
280 334 -1.0
281 281 4.0
281 282 -1.0
281 335 -1.0
282 282 4.0
282 283 -1.0
282 336 -1.0
283 283 4.0
283 284 -1.0
283 337 -1.0
284 284 4.0
284 285 -1.0
284 338 -1.0
285 285 4.0
285 286 -1.0
285 339 -1.0
286 286 4.0
286 287 -1.0
286 340 -1.0
287 287 4.0
287 288 -1.0
287 341 -1.0
288 288 4.0
288 289 -1.0
288 342 -1.0
289 289 4.0
289 290 -1.0
289 343 -1.0
290 290 4.0
290 291 -1.0
290 344 -1.0
291 291 4.0
291 292 -1.0
291 345 -1.0
292 292 4.0
292 293 -1.0
292 346 -1.0
293 293 4.0
293 294 -1.0
293 347 -1.0
294 294 4.0
294 295 -1.0
294 348 -1.0
295 295 4.0
295 296 -1.0
295 349 -1.0
296 296 4.0
296 297 -1.0
296 350 -1.0
297 297 4.0
297 298 -1.0
297 351 -1.0
298 298 4.0
298 299 -1.0
298 352 -1.0
299 299 4.0
299 300 -1.0
299 353 -1.0
300 300 4.0
300 301 -1.0
300 354 -1.0
301 301 4.0
301 302 -1.0
301 355 -1.0
302 302 4.0
302 303 -1.0
302 356 -1.0
303 303 4.0
303 304 -1.0
303 357 -1.0
304 304 4.0
304 305 -1.0
304 358 -1.0
305 305 4.0
305 306 -1.0
305 359 -1.0
306 306 4.0
306 307 -1.0
306 360 -1.0
307 307 4.0
307 308 -1.0
307 361 -1.0
308 308 4.0
308 309 -1.0
308 362 -1.0
309 309 4.0
309 310 -1.0
309 363 -1.0
310 310 4.0
310 311 -1.0
310 364 -1.0
311 311 4.0
311 312 -1.0
311 365 -1.0
312 312 4.0
312 313 -1.0
312 366 -1.0
313 313 4.0
313 314 -1.0
313 367 -1.0
314 314 4.0
314 315 -1.0
314 368 -1.0
315 315 4.0
315 316 -1.0
315 369 -1.0
316 316 4.0
316 317 -1.0
316 370 -1.0
317 317 4.0
317 318 -1.0
317 371 -1.0
318 318 4.0
318 319 -1.0
318 372 -1.0
319 319 4.0
319 320 -1.0
319 373 -1.0
320 320 4.0
320 321 -1.0
320 374 -1.0
321 321 4.0
321 322 -1.0
321 375 -1.0
322 322 4.0
322 323 -1.0
322 376 -1.0
323 323 4.0
323 324 -1.0
323 377 -1.0
324 324 4.0
324 378 -1.0
325 325 4.0
325 326 -1.0
325 379 -1.0
326 326 4.0
326 327 -1.0
326 380 -1.0
327 327 4.0
327 328 -1.0
327 381 -1.0
328 328 4.0
328 329 -1.0
328 382 -1.0
329 329 4.0
329 330 -1.0
329 383 -1.0
330 330 4.0
330 331 -1.0
330 384 -1.0
331 331 4.0
331 332 -1.0
331 385 -1.0
332 332 4.0
332 333 -1.0
332 386 -1.0
333 333 4.0
333 334 -1.0
333 387 -1.0
334 334 4.0
334 335 -1.0
334 388 -1.0
335 335 4.0
335 336 -1.0
335 389 -1.0
336 336 4.0
336 337 -1.0
336 390 -1.0
337 337 4.0
337 338 -1.0
337 391 -1.0
338 338 4.0
338 339 -1.0
338 392 -1.0
339 339 4.0
339 340 -1.0
339 393 -1.0
340 340 4.0
340 341 -1.0
340 394 -1.0
341 341 4.0
341 342 -1.0
341 395 -1.0
342 342 4.0
342 343 -1.0
342 396 -1.0
343 343 4.0
343 344 -1.0
343 397 -1.0
344 344 4.0
344 345 -1.0
344 398 -1.0
345 345 4.0
345 346 -1.0
345 399 -1.0
346 346 4.0
346 347 -1.0
346 400 -1.0
347 347 4.0
347 348 -1.0
347 401 -1.0
348 348 4.0
348 349 -1.0
348 402 -1.0
349 349 4.0
349 350 -1.0
349 403 -1.0
350 350 4.0
350 351 -1.0
350 404 -1.0
351 351 4.0
351 352 -1.0
351 405 -1.0
352 352 4.0
352 353 -1.0
352 406 -1.0
353 353 4.0
353 354 -1.0
353 407 -1.0
354 354 4.0
354 355 -1.0
354 408 -1.0
355 355 4.0
355 356 -1.0
355 409 -1.0
356 356 4.0
356 357 -1.0
356 410 -1.0
357 357 4.0
357 358 -1.0
357 411 -1.0
358 358 4.0
358 359 -1.0
358 412 -1.0
359 359 4.0
359 360 -1.0
359 413 -1.0
360 360 4.0
360 361 -1.0
360 414 -1.0
361 361 4.0
361 362 -1.0
361 415 -1.0
362 362 4.0
362 363 -1.0
362 416 -1.0
363 363 4.0
363 364 -1.0
363 417 -1.0
364 364 4.0
364 365 -1.0
364 418 -1.0
365 365 4.0
365 366 -1.0
365 419 -1.0
366 366 4.0
366 367 -1.0
366 420 -1.0
367 367 4.0
367 368 -1.0
367 421 -1.0
368 368 4.0
368 369 -1.0
368 422 -1.0
369 369 4.0
369 370 -1.0
369 423 -1.0
370 370 4.0
370 371 -1.0
370 424 -1.0
371 371 4.0
371 372 -1.0
371 425 -1.0
372 372 4.0
372 373 -1.0
372 426 -1.0
373 373 4.0
373 374 -1.0
373 427 -1.0
374 374 4.0
374 375 -1.0
374 428 -1.0
375 375 4.0
375 376 -1.0
375 429 -1.0
376 376 4.0
376 377 -1.0
376 430 -1.0
377 377 4.0
377 378 -1.0
377 431 -1.0
378 378 4.0
378 432 -1.0
379 379 4.0
379 380 -1.0
379 433 -1.0
380 380 4.0
380 381 -1.0
380 434 -1.0
381 381 4.0
381 382 -1.0
381 435 -1.0
382 382 4.0
382 383 -1.0
382 436 -1.0
383 383 4.0
383 384 -1.0
383 437 -1.0
384 384 4.0
384 385 -1.0
384 438 -1.0
385 385 4.0
385 386 -1.0
385 439 -1.0
386 386 4.0
386 387 -1.0
386 440 -1.0
387 387 4.0
387 388 -1.0
387 441 -1.0
388 388 4.0
388 389 -1.0
388 442 -1.0
389 389 4.0
389 390 -1.0
389 443 -1.0
390 390 4.0
390 391 -1.0
390 444 -1.0
391 391 4.0
391 392 -1.0
391 445 -1.0
392 392 4.0
392 393 -1.0
392 446 -1.0
393 393 4.0
393 394 -1.0
393 447 -1.0
394 394 4.0
394 395 -1.0
394 448 -1.0
395 395 4.0
395 396 -1.0
395 449 -1.0
396 396 4.0
396 397 -1.0
396 450 -1.0
397 397 4.0
397 398 -1.0
397 451 -1.0
398 398 4.0
398 399 -1.0
398 452 -1.0
399 399 4.0
399 400 -1.0
399 453 -1.0
400 400 4.0
400 401 -1.0
400 454 -1.0
401 401 4.0
401 402 -1.0
401 455 -1.0
402 402 4.0
402 403 -1.0
402 456 -1.0
403 403 4.0
403 404 -1.0
403 457 -1.0
404 404 4.0
404 405 -1.0
404 458 -1.0
405 405 4.0
405 406 -1.0
405 459 -1.0
406 406 4.0
406 407 -1.0
406 460 -1.0
407 407 4.0
407 408 -1.0
407 461 -1.0
408 408 4.0
408 409 -1.0
408 462 -1.0
409 409 4.0
409 410 -1.0
409 463 -1.0
410 410 4.0
410 411 -1.0
410 464 -1.0
411 411 4.0
411 412 -1.0
411 465 -1.0
412 412 4.0
412 413 -1.0
412 466 -1.0
413 413 4.0
413 414 -1.0
413 467 -1.0
414 414 4.0
414 415 -1.0
414 468 -1.0
415 415 4.0
415 416 -1.0
415 469 -1.0
416 416 4.0
416 417 -1.0
416 470 -1.0
417 417 4.0
417 418 -1.0
417 471 -1.0
418 418 4.0
418 419 -1.0
418 472 -1.0
419 419 4.0
419 420 -1.0
419 473 -1.0
420 420 4.0
420 421 -1.0
420 474 -1.0
421 421 4.0
421 422 -1.0
421 475 -1.0
422 422 4.0
422 423 -1.0
422 476 -1.0
423 423 4.0
423 424 -1.0
423 477 -1.0
424 424 4.0
424 425 -1.0
424 478 -1.0
425 425 4.0
425 426 -1.0
425 479 -1.0
426 426 4.0
426 427 -1.0
426 480 -1.0
427 427 4.0
427 428 -1.0
427 481 -1.0
428 428 4.0
428 429 -1.0
428 482 -1.0
429 429 4.0
429 430 -1.0
429 483 -1.0
430 430 4.0
430 431 -1.0
430 484 -1.0
431 431 4.0
431 432 -1.0
431 485 -1.0
432 432 4.0
432 486 -1.0
433 433 4.0
433 434 -1.0
433 487 -1.0
434 434 4.0
434 435 -1.0
434 488 -1.0
435 435 4.0
435 436 -1.0
435 489 -1.0
436 436 4.0
436 437 -1.0
436 490 -1.0
437 437 4.0
437 438 -1.0
437 491 -1.0
438 438 4.0
438 439 -1.0
438 492 -1.0
439 439 4.0
439 440 -1.0
439 493 -1.0
440 440 4.0
440 441 -1.0
440 494 -1.0
441 441 4.0
441 442 -1.0
441 495 -1.0
442 442 4.0
442 443 -1.0
442 496 -1.0
443 443 4.0
443 444 -1.0
443 497 -1.0
444 444 4.0
444 445 -1.0
444 498 -1.0
445 445 4.0
445 446 -1.0
445 499 -1.0
446 446 4.0
446 447 -1.0
446 500 -1.0
447 447 4.0
447 448 -1.0
447 501 -1.0
448 448 4.0
448 449 -1.0
448 502 -1.0
449 449 4.0
449 450 -1.0
449 503 -1.0
450 450 4.0
450 451 -1.0
450 504 -1.0
451 451 4.0
451 452 -1.0
451 505 -1.0
452 452 4.0
452 453 -1.0
452 506 -1.0
453 453 4.0
453 454 -1.0
453 507 -1.0
454 454 4.0
454 455 -1.0
454 508 -1.0
455 455 4.0
455 456 -1.0
455 509 -1.0
456 456 4.0
456 457 -1.0
456 510 -1.0
457 457 4.0
457 458 -1.0
457 511 -1.0
458 458 4.0
458 459 -1.0
458 512 -1.0
459 459 4.0
459 460 -1.0
459 513 -1.0
460 460 4.0
460 461 -1.0
460 514 -1.0
461 461 4.0
461 462 -1.0
461 515 -1.0
462 462 4.0
462 463 -1.0
462 516 -1.0
463 463 4.0
463 464 -1.0
463 517 -1.0
464 464 4.0
464 465 -1.0
464 518 -1.0
465 465 4.0
465 466 -1.0
465 519 -1.0
466 466 4.0
466 467 -1.0
466 520 -1.0
467 467 4.0
467 468 -1.0
467 521 -1.0
468 468 4.0
468 469 -1.0
468 522 -1.0
469 469 4.0
469 470 -1.0
469 523 -1.0
470 470 4.0
470 471 -1.0
470 524 -1.0
471 471 4.0
471 472 -1.0
471 525 -1.0
472 472 4.0
472 473 -1.0
472 526 -1.0
473 473 4.0
473 474 -1.0
473 527 -1.0
474 474 4.0
474 475 -1.0
474 528 -1.0
475 475 4.0
475 476 -1.0
475 529 -1.0
476 476 4.0
476 477 -1.0
476 530 -1.0
477 477 4.0
477 478 -1.0
477 531 -1.0
478 478 4.0
478 479 -1.0
478 532 -1.0
479 479 4.0
479 480 -1.0
479 533 -1.0
480 480 4.0
480 481 -1.0
480 534 -1.0
481 481 4.0
481 482 -1.0
481 535 -1.0
482 482 4.0
482 483 -1.0
482 536 -1.0
483 483 4.0
483 484 -1.0
483 537 -1.0
484 484 4.0
484 485 -1.0
484 538 -1.0
485 485 4.0
485 486 -1.0
485 539 -1.0
486 486 4.0
486 540 -1.0
487 487 4.0
487 488 -1.0
487 541 -1.0
488 488 4.0
488 489 -1.0
488 542 -1.0
489 489 4.0
489 490 -1.0
489 543 -1.0
490 490 4.0
490 491 -1.0
490 544 -1.0
491 491 4.0
491 492 -1.0
491 545 -1.0
492 492 4.0
492 493 -1.0
492 546 -1.0
493 493 4.0
493 494 -1.0
493 547 -1.0
494 494 4.0
494 495 -1.0
494 548 -1.0
495 495 4.0
495 496 -1.0
495 549 -1.0
496 496 4.0
496 497 -1.0
496 550 -1.0
497 497 4.0
497 498 -1.0
497 551 -1.0
498 498 4.0
498 499 -1.0
498 552 -1.0
499 499 4.0
499 500 -1.0
499 553 -1.0
500 500 4.0
500 501 -1.0
500 554 -1.0
501 501 4.0
501 502 -1.0
501 555 -1.0
502 502 4.0
502 503 -1.0
502 556 -1.0
503 503 4.0
503 504 -1.0
503 557 -1.0
504 504 4.0
504 505 -1.0
504 558 -1.0
505 505 4.0
505 506 -1.0
505 559 -1.0
506 506 4.0
506 507 -1.0
506 560 -1.0
507 507 4.0
507 508 -1.0
507 561 -1.0
508 508 4.0
508 509 -1.0
508 562 -1.0
509 509 4.0
509 510 -1.0
509 563 -1.0
510 510 4.0
510 511 -1.0
510 564 -1.0
511 511 4.0
511 512 -1.0
511 565 -1.0
512 512 4.0
512 513 -1.0
512 566 -1.0
513 513 4.0
513 514 -1.0
513 567 -1.0
514 514 4.0
514 515 -1.0
514 568 -1.0
515 515 4.0
515 516 -1.0
515 569 -1.0
516 516 4.0
516 517 -1.0
516 570 -1.0
517 517 4.0
517 518 -1.0
517 571 -1.0
518 518 4.0
518 519 -1.0
518 572 -1.0
519 519 4.0
519 520 -1.0
519 573 -1.0
520 520 4.0
520 521 -1.0
520 574 -1.0
521 521 4.0
521 522 -1.0
521 575 -1.0
522 522 4.0
522 523 -1.0
522 576 -1.0
523 523 4.0
523 524 -1.0
523 577 -1.0
524 524 4.0
524 525 -1.0
524 578 -1.0
525 525 4.0
525 526 -1.0
525 579 -1.0
526 526 4.0
526 527 -1.0
526 580 -1.0
527 527 4.0
527 528 -1.0
527 581 -1.0
528 528 4.0
528 529 -1.0
528 582 -1.0
529 529 4.0
529 530 -1.0
529 583 -1.0
530 530 4.0
530 531 -1.0
530 584 -1.0
531 531 4.0
531 532 -1.0
531 585 -1.0
532 532 4.0
532 533 -1.0
532 586 -1.0
533 533 4.0
533 534 -1.0
533 587 -1.0
534 534 4.0
534 535 -1.0
534 588 -1.0
535 535 4.0
535 536 -1.0
535 589 -1.0
536 536 4.0
536 537 -1.0
536 590 -1.0
537 537 4.0
537 538 -1.0
537 591 -1.0
538 538 4.0
538 539 -1.0
538 592 -1.0
539 539 4.0
539 540 -1.0
539 593 -1.0
540 540 4.0
540 594 -1.0
541 541 4.0
541 542 -1.0
541 595 -1.0
542 542 4.0
542 543 -1.0
542 596 -1.0
543 543 4.0
543 544 -1.0
543 597 -1.0
544 544 4.0
544 545 -1.0
544 598 -1.0
545 545 4.0
545 546 -1.0
545 599 -1.0
546 546 4.0
546 547 -1.0
546 600 -1.0
547 547 4.0
547 548 -1.0
547 601 -1.0
548 548 4.0
548 549 -1.0
548 602 -1.0
549 549 4.0
549 550 -1.0
549 603 -1.0
550 550 4.0
550 551 -1.0
550 604 -1.0
551 551 4.0
551 552 -1.0
551 605 -1.0
552 552 4.0
552 553 -1.0
552 606 -1.0
553 553 4.0
553 554 -1.0
553 607 -1.0
554 554 4.0
554 555 -1.0
554 608 -1.0
555 555 4.0
555 556 -1.0
555 609 -1.0
556 556 4.0
556 557 -1.0
556 610 -1.0
557 557 4.0
557 558 -1.0
557 611 -1.0
558 558 4.0
558 559 -1.0
558 612 -1.0
559 559 4.0
559 560 -1.0
559 613 -1.0
560 560 4.0
560 561 -1.0
560 614 -1.0
561 561 4.0
561 562 -1.0
561 615 -1.0
562 562 4.0
562 563 -1.0
562 616 -1.0
563 563 4.0
563 564 -1.0
563 617 -1.0
564 564 4.0
564 565 -1.0
564 618 -1.0
565 565 4.0
565 566 -1.0
565 619 -1.0
566 566 4.0
566 567 -1.0
566 620 -1.0
567 567 4.0
567 568 -1.0
567 621 -1.0
568 568 4.0
568 569 -1.0
568 622 -1.0
569 569 4.0
569 570 -1.0
569 623 -1.0
570 570 4.0
570 571 -1.0
570 624 -1.0
571 571 4.0
571 572 -1.0
571 625 -1.0
572 572 4.0
572 573 -1.0
572 626 -1.0
573 573 4.0
573 574 -1.0
573 627 -1.0
574 574 4.0
574 575 -1.0
574 628 -1.0
575 575 4.0
575 576 -1.0
575 629 -1.0
576 576 4.0
576 577 -1.0
576 630 -1.0
577 577 4.0
577 578 -1.0
577 631 -1.0
578 578 4.0
578 579 -1.0
578 632 -1.0
579 579 4.0
579 580 -1.0
579 633 -1.0
580 580 4.0
580 581 -1.0
580 634 -1.0
581 581 4.0
581 582 -1.0
581 635 -1.0
582 582 4.0
582 583 -1.0
582 636 -1.0
583 583 4.0
583 584 -1.0
583 637 -1.0
584 584 4.0
584 585 -1.0
584 638 -1.0
585 585 4.0
585 586 -1.0
585 639 -1.0
586 586 4.0
586 587 -1.0
586 640 -1.0
587 587 4.0
587 588 -1.0
587 641 -1.0
588 588 4.0
588 589 -1.0
588 642 -1.0
589 589 4.0
589 590 -1.0
589 643 -1.0
590 590 4.0
590 591 -1.0
590 644 -1.0
591 591 4.0
591 592 -1.0
591 645 -1.0
592 592 4.0
592 593 -1.0
592 646 -1.0
593 593 4.0
593 594 -1.0
593 647 -1.0
594 594 4.0
594 648 -1.0
595 595 4.0
595 596 -1.0
595 649 -1.0
596 596 4.0
596 597 -1.0
596 650 -1.0
597 597 4.0
597 598 -1.0
597 651 -1.0
598 598 4.0
598 599 -1.0
598 652 -1.0
599 599 4.0
599 600 -1.0
599 653 -1.0
600 600 4.0
600 601 -1.0
600 654 -1.0
601 601 4.0
601 602 -1.0
601 655 -1.0
602 602 4.0
602 603 -1.0
602 656 -1.0
603 603 4.0
603 604 -1.0
603 657 -1.0
604 604 4.0
604 605 -1.0
604 658 -1.0
605 605 4.0
605 606 -1.0
605 659 -1.0
606 606 4.0
606 607 -1.0
606 660 -1.0
607 607 4.0
607 608 -1.0
607 661 -1.0
608 608 4.0
608 609 -1.0
608 662 -1.0
609 609 4.0
609 610 -1.0
609 663 -1.0
610 610 4.0
610 611 -1.0
610 664 -1.0
611 611 4.0
611 612 -1.0
611 665 -1.0
612 612 4.0
612 613 -1.0
612 666 -1.0
613 613 4.0
613 614 -1.0
613 667 -1.0
614 614 4.0
614 615 -1.0
614 668 -1.0
615 615 4.0
615 616 -1.0
615 669 -1.0
616 616 4.0
616 617 -1.0
616 670 -1.0
617 617 4.0
617 618 -1.0
617 671 -1.0
618 618 4.0
618 619 -1.0
618 672 -1.0
619 619 4.0
619 620 -1.0
619 673 -1.0
620 620 4.0
620 621 -1.0
620 674 -1.0
621 621 4.0
621 622 -1.0
621 675 -1.0
622 622 4.0
622 623 -1.0
622 676 -1.0
623 623 4.0
623 624 -1.0
623 677 -1.0
624 624 4.0
624 625 -1.0
624 678 -1.0
625 625 4.0
625 626 -1.0
625 679 -1.0
626 626 4.0
626 627 -1.0
626 680 -1.0
627 627 4.0
627 628 -1.0
627 681 -1.0
628 628 4.0
628 629 -1.0
628 682 -1.0
629 629 4.0
629 630 -1.0
629 683 -1.0
630 630 4.0
630 631 -1.0
630 684 -1.0
631 631 4.0
631 632 -1.0
631 685 -1.0
632 632 4.0
632 633 -1.0
632 686 -1.0
633 633 4.0
633 634 -1.0
633 687 -1.0
634 634 4.0
634 635 -1.0
634 688 -1.0
635 635 4.0
635 636 -1.0
635 689 -1.0
636 636 4.0
636 637 -1.0
636 690 -1.0
637 637 4.0
637 638 -1.0
637 691 -1.0
638 638 4.0
638 639 -1.0
638 692 -1.0
639 639 4.0
639 640 -1.0
639 693 -1.0
640 640 4.0
640 641 -1.0
640 694 -1.0
641 641 4.0
641 642 -1.0
641 695 -1.0
642 642 4.0
642 643 -1.0
642 696 -1.0
643 643 4.0
643 644 -1.0
643 697 -1.0
644 644 4.0
644 645 -1.0
644 698 -1.0
645 645 4.0
645 646 -1.0
645 699 -1.0
646 646 4.0
646 647 -1.0
646 700 -1.0
647 647 4.0
647 648 -1.0
647 701 -1.0
648 648 4.0
648 702 -1.0
649 649 4.0
649 650 -1.0
649 703 -1.0
650 650 4.0
650 651 -1.0
650 704 -1.0
651 651 4.0
651 652 -1.0
651 705 -1.0
652 652 4.0
652 653 -1.0
652 706 -1.0
653 653 4.0
653 654 -1.0
653 707 -1.0
654 654 4.0
654 655 -1.0
654 708 -1.0
655 655 4.0
655 656 -1.0
655 709 -1.0
656 656 4.0
656 657 -1.0
656 710 -1.0
657 657 4.0
657 658 -1.0
657 711 -1.0
658 658 4.0
658 659 -1.0
658 712 -1.0
659 659 4.0
659 660 -1.0
659 713 -1.0
660 660 4.0
660 661 -1.0
660 714 -1.0
661 661 4.0
661 662 -1.0
661 715 -1.0
662 662 4.0
662 663 -1.0
662 716 -1.0
663 663 4.0
663 664 -1.0
663 717 -1.0
664 664 4.0
664 665 -1.0
664 718 -1.0
665 665 4.0
665 666 -1.0
665 719 -1.0
666 666 4.0
666 667 -1.0
666 720 -1.0
667 667 4.0
667 668 -1.0
667 721 -1.0
668 668 4.0
668 669 -1.0
668 722 -1.0
669 669 4.0
669 670 -1.0
669 723 -1.0
670 670 4.0
670 671 -1.0
670 724 -1.0
671 671 4.0
671 672 -1.0
671 725 -1.0
672 672 4.0
672 673 -1.0
672 726 -1.0
673 673 4.0
673 674 -1.0
673 727 -1.0
674 674 4.0
674 675 -1.0
674 728 -1.0
675 675 4.0
675 676 -1.0
675 729 -1.0
676 676 4.0
676 677 -1.0
676 730 -1.0
677 677 4.0
677 678 -1.0
677 731 -1.0
678 678 4.0
678 679 -1.0
678 732 -1.0
679 679 4.0
679 680 -1.0
679 733 -1.0
680 680 4.0
680 681 -1.0
680 734 -1.0
681 681 4.0
681 682 -1.0
681 735 -1.0
682 682 4.0
682 683 -1.0
682 736 -1.0
683 683 4.0
683 684 -1.0
683 737 -1.0
684 684 4.0
684 685 -1.0
684 738 -1.0
685 685 4.0
685 686 -1.0
685 739 -1.0
686 686 4.0
686 687 -1.0
686 740 -1.0
687 687 4.0
687 688 -1.0
687 741 -1.0
688 688 4.0
688 689 -1.0
688 742 -1.0
689 689 4.0
689 690 -1.0
689 743 -1.0
690 690 4.0
690 691 -1.0
690 744 -1.0
691 691 4.0
691 692 -1.0
691 745 -1.0
692 692 4.0
692 693 -1.0
692 746 -1.0
693 693 4.0
693 694 -1.0
693 747 -1.0
694 694 4.0
694 695 -1.0
694 748 -1.0
695 695 4.0
695 696 -1.0
695 749 -1.0
696 696 4.0
696 697 -1.0
696 750 -1.0
697 697 4.0
697 698 -1.0
697 751 -1.0
698 698 4.0
698 699 -1.0
698 752 -1.0
699 699 4.0
699 700 -1.0
699 753 -1.0
700 700 4.0
700 701 -1.0
700 754 -1.0
701 701 4.0
701 702 -1.0
701 755 -1.0
702 702 4.0
702 756 -1.0
703 703 4.0
703 704 -1.0
703 757 -1.0
704 704 4.0
704 705 -1.0
704 758 -1.0
705 705 4.0
705 706 -1.0
705 759 -1.0
706 706 4.0
706 707 -1.0
706 760 -1.0
707 707 4.0
707 708 -1.0
707 761 -1.0
708 708 4.0
708 709 -1.0
708 762 -1.0
709 709 4.0
709 710 -1.0
709 763 -1.0
710 710 4.0
710 711 -1.0
710 764 -1.0
711 711 4.0
711 712 -1.0
711 765 -1.0
712 712 4.0
712 713 -1.0
712 766 -1.0
713 713 4.0
713 714 -1.0
713 767 -1.0
714 714 4.0
714 715 -1.0
714 768 -1.0
715 715 4.0
715 716 -1.0
715 769 -1.0
716 716 4.0
716 717 -1.0
716 770 -1.0
717 717 4.0
717 718 -1.0
717 771 -1.0
718 718 4.0
718 719 -1.0
718 772 -1.0
719 719 4.0
719 720 -1.0
719 773 -1.0
720 720 4.0
720 721 -1.0
720 774 -1.0
721 721 4.0
721 722 -1.0
721 775 -1.0
722 722 4.0
722 723 -1.0
722 776 -1.0
723 723 4.0
723 724 -1.0
723 777 -1.0
724 724 4.0
724 725 -1.0
724 778 -1.0
725 725 4.0
725 726 -1.0
725 779 -1.0
726 726 4.0
726 727 -1.0
726 780 -1.0
727 727 4.0
727 728 -1.0
727 781 -1.0
728 728 4.0
728 729 -1.0
728 782 -1.0
729 729 4.0
729 730 -1.0
729 783 -1.0
730 730 4.0
730 731 -1.0
730 784 -1.0
731 731 4.0
731 732 -1.0
731 785 -1.0
732 732 4.0
732 733 -1.0
732 786 -1.0
733 733 4.0
733 734 -1.0
733 787 -1.0
734 734 4.0
734 735 -1.0
734 788 -1.0
735 735 4.0
735 736 -1.0
735 789 -1.0
736 736 4.0
736 737 -1.0
736 790 -1.0
737 737 4.0
737 738 -1.0
737 791 -1.0
738 738 4.0
738 739 -1.0
738 792 -1.0
739 739 4.0
739 740 -1.0
739 793 -1.0
740 740 4.0
740 741 -1.0
740 794 -1.0
741 741 4.0
741 742 -1.0
741 795 -1.0
742 742 4.0
742 743 -1.0
742 796 -1.0
743 743 4.0
743 744 -1.0
743 797 -1.0
744 744 4.0
744 745 -1.0
744 798 -1.0
745 745 4.0
745 746 -1.0
745 799 -1.0
746 746 4.0
746 747 -1.0
746 800 -1.0
747 747 4.0
747 748 -1.0
747 801 -1.0
748 748 4.0
748 749 -1.0
748 802 -1.0
749 749 4.0
749 750 -1.0
749 803 -1.0
750 750 4.0
750 751 -1.0
750 804 -1.0
751 751 4.0
751 752 -1.0
751 805 -1.0
752 752 4.0
752 753 -1.0
752 806 -1.0
753 753 4.0
753 754 -1.0
753 807 -1.0
754 754 4.0
754 755 -1.0
754 808 -1.0
755 755 4.0
755 756 -1.0
755 809 -1.0
756 756 4.0
756 810 -1.0
757 757 4.0
757 758 -1.0
757 811 -1.0
758 758 4.0
758 759 -1.0
758 812 -1.0
759 759 4.0
759 760 -1.0
759 813 -1.0
760 760 4.0
760 761 -1.0
760 814 -1.0
761 761 4.0
761 762 -1.0
761 815 -1.0
762 762 4.0
762 763 -1.0
762 816 -1.0
763 763 4.0
763 764 -1.0
763 817 -1.0
764 764 4.0
764 765 -1.0
764 818 -1.0
765 765 4.0
765 766 -1.0
765 819 -1.0
766 766 4.0
766 767 -1.0
766 820 -1.0
767 767 4.0
767 768 -1.0
767 821 -1.0
768 768 4.0
768 769 -1.0
768 822 -1.0
769 769 4.0
769 770 -1.0
769 823 -1.0
770 770 4.0
770 771 -1.0
770 824 -1.0
771 771 4.0
771 772 -1.0
771 825 -1.0
772 772 4.0
772 773 -1.0
772 826 -1.0
773 773 4.0
773 774 -1.0
773 827 -1.0
774 774 4.0
774 775 -1.0
774 828 -1.0
775 775 4.0
775 776 -1.0
775 829 -1.0
776 776 4.0
776 777 -1.0
776 830 -1.0
777 777 4.0
777 778 -1.0
777 831 -1.0
778 778 4.0
778 779 -1.0
778 832 -1.0
779 779 4.0
779 780 -1.0
779 833 -1.0
780 780 4.0
780 781 -1.0
780 834 -1.0
781 781 4.0
781 782 -1.0
781 835 -1.0
782 782 4.0
782 783 -1.0
782 836 -1.0
783 783 4.0
783 784 -1.0
783 837 -1.0
784 784 4.0
784 785 -1.0
784 838 -1.0
785 785 4.0
785 786 -1.0
785 839 -1.0
786 786 4.0
786 787 -1.0
786 840 -1.0
787 787 4.0
787 788 -1.0
787 841 -1.0
788 788 4.0
788 789 -1.0
788 842 -1.0
789 789 4.0
789 790 -1.0
789 843 -1.0
790 790 4.0
790 791 -1.0
790 844 -1.0
791 791 4.0
791 792 -1.0
791 845 -1.0
792 792 4.0
792 793 -1.0
792 846 -1.0
793 793 4.0
793 794 -1.0
793 847 -1.0
794 794 4.0
794 795 -1.0
794 848 -1.0
795 795 4.0
795 796 -1.0
795 849 -1.0
796 796 4.0
796 797 -1.0
796 850 -1.0
797 797 4.0
797 798 -1.0
797 851 -1.0
798 798 4.0
798 799 -1.0
798 852 -1.0
799 799 4.0
799 800 -1.0
799 853 -1.0
800 800 4.0
800 801 -1.0
800 854 -1.0
801 801 4.0
801 802 -1.0
801 855 -1.0
802 802 4.0
802 803 -1.0
802 856 -1.0
803 803 4.0
803 804 -1.0
803 857 -1.0
804 804 4.0
804 805 -1.0
804 858 -1.0
805 805 4.0
805 806 -1.0
805 859 -1.0
806 806 4.0
806 807 -1.0
806 860 -1.0
807 807 4.0
807 808 -1.0
807 861 -1.0
808 808 4.0
808 809 -1.0
808 862 -1.0
809 809 4.0
809 810 -1.0
809 863 -1.0
810 810 4.0
810 864 -1.0
811 811 4.0
811 812 -1.0
811 865 -1.0
812 812 4.0
812 813 -1.0
812 866 -1.0
813 813 4.0
813 814 -1.0
813 867 -1.0
814 814 4.0
814 815 -1.0
814 868 -1.0
815 815 4.0
815 816 -1.0
815 869 -1.0
816 816 4.0
816 817 -1.0
816 870 -1.0
817 817 4.0
817 818 -1.0
817 871 -1.0
818 818 4.0
818 819 -1.0
818 872 -1.0
819 819 4.0
819 820 -1.0
819 873 -1.0
820 820 4.0
820 821 -1.0
820 874 -1.0
821 821 4.0
821 822 -1.0
821 875 -1.0
822 822 4.0
822 823 -1.0
822 876 -1.0
823 823 4.0
823 824 -1.0
823 877 -1.0
824 824 4.0
824 825 -1.0
824 878 -1.0
825 825 4.0
825 826 -1.0
825 879 -1.0
826 826 4.0
826 827 -1.0
826 880 -1.0
827 827 4.0
827 828 -1.0
827 881 -1.0
828 828 4.0
828 829 -1.0
828 882 -1.0
829 829 4.0
829 830 -1.0
829 883 -1.0
830 830 4.0
830 831 -1.0
830 884 -1.0
831 831 4.0
831 832 -1.0
831 885 -1.0
832 832 4.0
832 833 -1.0
832 886 -1.0
833 833 4.0
833 834 -1.0
833 887 -1.0
834 834 4.0
834 835 -1.0
834 888 -1.0
835 835 4.0
835 836 -1.0
835 889 -1.0
836 836 4.0
836 837 -1.0
836 890 -1.0
837 837 4.0
837 838 -1.0
837 891 -1.0
838 838 4.0
838 839 -1.0
838 892 -1.0
839 839 4.0
839 840 -1.0
839 893 -1.0
840 840 4.0
840 841 -1.0
840 894 -1.0
841 841 4.0
841 842 -1.0
841 895 -1.0
842 842 4.0
842 843 -1.0
842 896 -1.0
843 843 4.0
843 844 -1.0
843 897 -1.0
844 844 4.0
844 845 -1.0
844 898 -1.0
845 845 4.0
845 846 -1.0
845 899 -1.0
846 846 4.0
846 847 -1.0
846 900 -1.0
847 847 4.0
847 848 -1.0
847 901 -1.0
848 848 4.0
848 849 -1.0
848 902 -1.0
849 849 4.0
849 850 -1.0
849 903 -1.0
850 850 4.0
850 851 -1.0
850 904 -1.0
851 851 4.0
851 852 -1.0
851 905 -1.0
852 852 4.0
852 853 -1.0
852 906 -1.0
853 853 4.0
853 854 -1.0
853 907 -1.0
854 854 4.0
854 855 -1.0
854 908 -1.0
855 855 4.0
855 856 -1.0
855 909 -1.0
856 856 4.0
856 857 -1.0
856 910 -1.0
857 857 4.0
857 858 -1.0
857 911 -1.0
858 858 4.0
858 859 -1.0
858 912 -1.0
859 859 4.0
859 860 -1.0
859 913 -1.0
860 860 4.0
860 861 -1.0
860 914 -1.0
861 861 4.0
861 862 -1.0
861 915 -1.0
862 862 4.0
862 863 -1.0
862 916 -1.0
863 863 4.0
863 864 -1.0
863 917 -1.0
864 864 4.0
864 918 -1.0
865 865 4.0
865 866 -1.0
865 919 -1.0
866 866 4.0
866 867 -1.0
866 920 -1.0
867 867 4.0
867 868 -1.0
867 921 -1.0
868 868 4.0
868 869 -1.0
868 922 -1.0
869 869 4.0
869 870 -1.0
869 923 -1.0
870 870 4.0
870 871 -1.0
870 924 -1.0
871 871 4.0
871 872 -1.0
871 925 -1.0
872 872 4.0
872 873 -1.0
872 926 -1.0
873 873 4.0
873 874 -1.0
873 927 -1.0
874 874 4.0
874 875 -1.0
874 928 -1.0
875 875 4.0
875 876 -1.0
875 929 -1.0
876 876 4.0
876 877 -1.0
876 930 -1.0
877 877 4.0
877 878 -1.0
877 931 -1.0
878 878 4.0
878 879 -1.0
878 932 -1.0
879 879 4.0
879 880 -1.0
879 933 -1.0
880 880 4.0
880 881 -1.0
880 934 -1.0
881 881 4.0
881 882 -1.0
881 935 -1.0
882 882 4.0
882 883 -1.0
882 936 -1.0
883 883 4.0
883 884 -1.0
883 937 -1.0
884 884 4.0
884 885 -1.0
884 938 -1.0
885 885 4.0
885 886 -1.0
885 939 -1.0
886 886 4.0
886 887 -1.0
886 940 -1.0
887 887 4.0
887 888 -1.0
887 941 -1.0
888 888 4.0
888 889 -1.0
888 942 -1.0
889 889 4.0
889 890 -1.0
889 943 -1.0
890 890 4.0
890 891 -1.0
890 944 -1.0
891 891 4.0
891 892 -1.0
891 945 -1.0
892 892 4.0
892 893 -1.0
892 946 -1.0
893 893 4.0
893 894 -1.0
893 947 -1.0
894 894 4.0
894 895 -1.0
894 948 -1.0
895 895 4.0
895 896 -1.0
895 949 -1.0
896 896 4.0
896 897 -1.0
896 950 -1.0
897 897 4.0
897 898 -1.0
897 951 -1.0
898 898 4.0
898 899 -1.0
898 952 -1.0
899 899 4.0
899 900 -1.0
899 953 -1.0
900 900 4.0
900 901 -1.0
900 954 -1.0
901 901 4.0
901 902 -1.0
901 955 -1.0
902 902 4.0
902 903 -1.0
902 956 -1.0
903 903 4.0
903 904 -1.0
903 957 -1.0
904 904 4.0
904 905 -1.0
904 958 -1.0
905 905 4.0
905 906 -1.0
905 959 -1.0
906 906 4.0
906 907 -1.0
906 960 -1.0
907 907 4.0
907 908 -1.0
907 961 -1.0
908 908 4.0
908 909 -1.0
908 962 -1.0
909 909 4.0
909 910 -1.0
909 963 -1.0
910 910 4.0
910 911 -1.0
910 964 -1.0
911 911 4.0
911 912 -1.0
911 965 -1.0
912 912 4.0
912 913 -1.0
912 966 -1.0
913 913 4.0
913 914 -1.0
913 967 -1.0
914 914 4.0
914 915 -1.0
914 968 -1.0
915 915 4.0
915 916 -1.0
915 969 -1.0
916 916 4.0
916 917 -1.0
916 970 -1.0
917 917 4.0
917 918 -1.0
917 971 -1.0
918 918 4.0
918 972 -1.0
919 919 4.0
919 920 -1.0
919 973 -1.0
920 920 4.0
920 921 -1.0
920 974 -1.0
921 921 4.0
921 922 -1.0
921 975 -1.0
922 922 4.0
922 923 -1.0
922 976 -1.0
923 923 4.0
923 924 -1.0
923 977 -1.0
924 924 4.0
924 925 -1.0
924 978 -1.0
925 925 4.0
925 926 -1.0
925 979 -1.0
926 926 4.0
926 927 -1.0
926 980 -1.0
927 927 4.0
927 928 -1.0
927 981 -1.0
928 928 4.0
928 929 -1.0
928 982 -1.0
929 929 4.0
929 930 -1.0
929 983 -1.0
930 930 4.0
930 931 -1.0
930 984 -1.0
931 931 4.0
931 932 -1.0
931 985 -1.0
932 932 4.0
932 933 -1.0
932 986 -1.0
933 933 4.0
933 934 -1.0
933 987 -1.0
934 934 4.0
934 935 -1.0
934 988 -1.0
935 935 4.0
935 936 -1.0
935 989 -1.0
936 936 4.0
936 937 -1.0
936 990 -1.0
937 937 4.0
937 938 -1.0
937 991 -1.0
938 938 4.0
938 939 -1.0
938 992 -1.0
939 939 4.0
939 940 -1.0
939 993 -1.0
940 940 4.0
940 941 -1.0
940 994 -1.0
941 941 4.0
941 942 -1.0
941 995 -1.0
942 942 4.0
942 943 -1.0
942 996 -1.0
943 943 4.0
943 944 -1.0
943 997 -1.0
944 944 4.0
944 945 -1.0
944 998 -1.0
945 945 4.0
945 946 -1.0
945 999 -1.0
946 946 4.0
946 947 -1.0
946 1000 -1.0
947 947 4.0
947 948 -1.0
947 1001 -1.0
948 948 4.0
948 949 -1.0
948 1002 -1.0
949 949 4.0
949 950 -1.0
949 1003 -1.0
950 950 4.0
950 951 -1.0
950 1004 -1.0
951 951 4.0
951 952 -1.0
951 1005 -1.0
952 952 4.0
952 953 -1.0
952 1006 -1.0
953 953 4.0
953 954 -1.0
953 1007 -1.0
954 954 4.0
954 955 -1.0
954 1008 -1.0
955 955 4.0
955 956 -1.0
955 1009 -1.0
956 956 4.0
956 957 -1.0
956 1010 -1.0
957 957 4.0
957 958 -1.0
957 1011 -1.0
958 958 4.0
958 959 -1.0
958 1012 -1.0
959 959 4.0
959 960 -1.0
959 1013 -1.0
960 960 4.0
960 961 -1.0
960 1014 -1.0
961 961 4.0
961 962 -1.0
961 1015 -1.0
962 962 4.0
962 963 -1.0
962 1016 -1.0
963 963 4.0
963 964 -1.0
963 1017 -1.0
964 964 4.0
964 965 -1.0
964 1018 -1.0
965 965 4.0
965 966 -1.0
965 1019 -1.0
966 966 4.0
966 967 -1.0
966 1020 -1.0
967 967 4.0
967 968 -1.0
967 1021 -1.0
968 968 4.0
968 969 -1.0
968 1022 -1.0
969 969 4.0
969 970 -1.0
969 1023 -1.0
970 970 4.0
970 971 -1.0
970 1024 -1.0
971 971 4.0
971 972 -1.0
971 1025 -1.0
972 972 4.0
972 1026 -1.0
973 973 4.0
973 974 -1.0
973 1027 -1.0
974 974 4.0
974 975 -1.0
974 1028 -1.0
975 975 4.0
975 976 -1.0
975 1029 -1.0
976 976 4.0
976 977 -1.0
976 1030 -1.0
977 977 4.0
977 978 -1.0
977 1031 -1.0
978 978 4.0
978 979 -1.0
978 1032 -1.0
979 979 4.0
979 980 -1.0
979 1033 -1.0
980 980 4.0
980 981 -1.0
980 1034 -1.0
981 981 4.0
981 982 -1.0
981 1035 -1.0
982 982 4.0
982 983 -1.0
982 1036 -1.0
983 983 4.0
983 984 -1.0
983 1037 -1.0
984 984 4.0
984 985 -1.0
984 1038 -1.0
985 985 4.0
985 986 -1.0
985 1039 -1.0
986 986 4.0
986 987 -1.0
986 1040 -1.0
987 987 4.0
987 988 -1.0
987 1041 -1.0
988 988 4.0
988 989 -1.0
988 1042 -1.0
989 989 4.0
989 990 -1.0
989 1043 -1.0
990 990 4.0
990 991 -1.0
990 1044 -1.0
991 991 4.0
991 992 -1.0
991 1045 -1.0
992 992 4.0
992 993 -1.0
992 1046 -1.0
993 993 4.0
993 994 -1.0
993 1047 -1.0
994 994 4.0
994 995 -1.0
994 1048 -1.0
995 995 4.0
995 996 -1.0
995 1049 -1.0
996 996 4.0
996 997 -1.0
996 1050 -1.0
997 997 4.0
997 998 -1.0
997 1051 -1.0
998 998 4.0
998 999 -1.0
998 1052 -1.0
999 999 4.0
999 1000 -1.0
999 1053 -1.0
1000 1000 4.0
1000 1001 -1.0
1000 1054 -1.0
1001 1001 4.0
1001 1002 -1.0
1001 1055 -1.0
1002 1002 4.0
1002 1003 -1.0
1002 1056 -1.0
1003 1003 4.0
1003 1004 -1.0
1003 1057 -1.0
1004 1004 4.0
1004 1005 -1.0
1004 1058 -1.0
1005 1005 4.0
1005 1006 -1.0
1005 1059 -1.0
1006 1006 4.0
1006 1007 -1.0
1006 1060 -1.0
1007 1007 4.0
1007 1008 -1.0
1007 1061 -1.0
1008 1008 4.0
1008 1009 -1.0
1008 1062 -1.0
1009 1009 4.0
1009 1010 -1.0
1009 1063 -1.0
1010 1010 4.0
1010 1011 -1.0
1010 1064 -1.0
1011 1011 4.0
1011 1012 -1.0
1011 1065 -1.0
1012 1012 4.0
1012 1013 -1.0
1012 1066 -1.0
1013 1013 4.0
1013 1014 -1.0
1013 1067 -1.0
1014 1014 4.0
1014 1015 -1.0
1014 1068 -1.0
1015 1015 4.0
1015 1016 -1.0
1015 1069 -1.0
1016 1016 4.0
1016 1017 -1.0
1016 1070 -1.0
1017 1017 4.0
1017 1018 -1.0
1017 1071 -1.0
1018 1018 4.0
1018 1019 -1.0
1018 1072 -1.0
1019 1019 4.0
1019 1020 -1.0
1019 1073 -1.0
1020 1020 4.0
1020 1021 -1.0
1020 1074 -1.0
1021 1021 4.0
1021 1022 -1.0
1021 1075 -1.0
1022 1022 4.0
1022 1023 -1.0
1022 1076 -1.0
1023 1023 4.0
1023 1024 -1.0
1023 1077 -1.0
1024 1024 4.0
1024 1025 -1.0
1024 1078 -1.0
1025 1025 4.0
1025 1026 -1.0
1025 1079 -1.0
1026 1026 4.0
1026 1080 -1.0
1027 1027 4.0
1027 1028 -1.0
1027 1081 -1.0
1028 1028 4.0
1028 1029 -1.0
1028 1082 -1.0
1029 1029 4.0
1029 1030 -1.0
1029 1083 -1.0
1030 1030 4.0
1030 1031 -1.0
1030 1084 -1.0
1031 1031 4.0
1031 1032 -1.0
1031 1085 -1.0
1032 1032 4.0
1032 1033 -1.0
1032 1086 -1.0
1033 1033 4.0
1033 1034 -1.0
1033 1087 -1.0
1034 1034 4.0
1034 1035 -1.0
1034 1088 -1.0
1035 1035 4.0
1035 1036 -1.0
1035 1089 -1.0
1036 1036 4.0
1036 1037 -1.0
1036 1090 -1.0
1037 1037 4.0
1037 1038 -1.0
1037 1091 -1.0
1038 1038 4.0
1038 1039 -1.0
1038 1092 -1.0
1039 1039 4.0
1039 1040 -1.0
1039 1093 -1.0
1040 1040 4.0
1040 1041 -1.0
1040 1094 -1.0
1041 1041 4.0
1041 1042 -1.0
1041 1095 -1.0
1042 1042 4.0
1042 1043 -1.0
1042 1096 -1.0
1043 1043 4.0
1043 1044 -1.0
1043 1097 -1.0
1044 1044 4.0
1044 1045 -1.0
1044 1098 -1.0
1045 1045 4.0
1045 1046 -1.0
1045 1099 -1.0
1046 1046 4.0
1046 1047 -1.0
1046 1100 -1.0
1047 1047 4.0
1047 1048 -1.0
1047 1101 -1.0
1048 1048 4.0
1048 1049 -1.0
1048 1102 -1.0
1049 1049 4.0
1049 1050 -1.0
1049 1103 -1.0
1050 1050 4.0
1050 1051 -1.0
1050 1104 -1.0
1051 1051 4.0
1051 1052 -1.0
1051 1105 -1.0
1052 1052 4.0
1052 1053 -1.0
1052 1106 -1.0
1053 1053 4.0
1053 1054 -1.0
1053 1107 -1.0
1054 1054 4.0
1054 1055 -1.0
1054 1108 -1.0
1055 1055 4.0
1055 1056 -1.0
1055 1109 -1.0
1056 1056 4.0
1056 1057 -1.0
1056 1110 -1.0
1057 1057 4.0
1057 1058 -1.0
1057 1111 -1.0
1058 1058 4.0
1058 1059 -1.0
1058 1112 -1.0
1059 1059 4.0
1059 1060 -1.0
1059 1113 -1.0
1060 1060 4.0
1060 1061 -1.0
1060 1114 -1.0
1061 1061 4.0
1061 1062 -1.0
1061 1115 -1.0
1062 1062 4.0
1062 1063 -1.0
1062 1116 -1.0
1063 1063 4.0
1063 1064 -1.0
1063 1117 -1.0
1064 1064 4.0
1064 1065 -1.0
1064 1118 -1.0
1065 1065 4.0
1065 1066 -1.0
1065 1119 -1.0
1066 1066 4.0
1066 1067 -1.0
1066 1120 -1.0
1067 1067 4.0
1067 1068 -1.0
1067 1121 -1.0
1068 1068 4.0
1068 1069 -1.0
1068 1122 -1.0
1069 1069 4.0
1069 1070 -1.0
1069 1123 -1.0
1070 1070 4.0
1070 1071 -1.0
1070 1124 -1.0
1071 1071 4.0
1071 1072 -1.0
1071 1125 -1.0
1072 1072 4.0
1072 1073 -1.0
1072 1126 -1.0
1073 1073 4.0
1073 1074 -1.0
1073 1127 -1.0
1074 1074 4.0
1074 1075 -1.0
1074 1128 -1.0
1075 1075 4.0
1075 1076 -1.0
1075 1129 -1.0
1076 1076 4.0
1076 1077 -1.0
1076 1130 -1.0
1077 1077 4.0
1077 1078 -1.0
1077 1131 -1.0
1078 1078 4.0
1078 1079 -1.0
1078 1132 -1.0
1079 1079 4.0
1079 1080 -1.0
1079 1133 -1.0
1080 1080 4.0
1080 1134 -1.0
1081 1081 4.0
1081 1082 -1.0
1081 1135 -1.0
1082 1082 4.0
1082 1083 -1.0
1082 1136 -1.0
1083 1083 4.0
1083 1084 -1.0
1083 1137 -1.0
1084 1084 4.0
1084 1085 -1.0
1084 1138 -1.0
1085 1085 4.0
1085 1086 -1.0
1085 1139 -1.0
1086 1086 4.0
1086 1087 -1.0
1086 1140 -1.0
1087 1087 4.0
1087 1088 -1.0
1087 1141 -1.0
1088 1088 4.0
1088 1089 -1.0
1088 1142 -1.0
1089 1089 4.0
1089 1090 -1.0
1089 1143 -1.0
1090 1090 4.0
1090 1091 -1.0
1090 1144 -1.0
1091 1091 4.0
1091 1092 -1.0
1091 1145 -1.0
1092 1092 4.0
1092 1093 -1.0
1092 1146 -1.0
1093 1093 4.0
1093 1094 -1.0
1093 1147 -1.0
1094 1094 4.0
1094 1095 -1.0
1094 1148 -1.0
1095 1095 4.0
1095 1096 -1.0
1095 1149 -1.0
1096 1096 4.0
1096 1097 -1.0
1096 1150 -1.0
1097 1097 4.0
1097 1098 -1.0
1097 1151 -1.0
1098 1098 4.0
1098 1099 -1.0
1098 1152 -1.0
1099 1099 4.0
1099 1100 -1.0
1099 1153 -1.0
1100 1100 4.0
1100 1101 -1.0
1100 1154 -1.0
1101 1101 4.0
1101 1102 -1.0
1101 1155 -1.0
1102 1102 4.0
1102 1103 -1.0
1102 1156 -1.0
1103 1103 4.0
1103 1104 -1.0
1103 1157 -1.0
1104 1104 4.0
1104 1105 -1.0
1104 1158 -1.0
1105 1105 4.0
1105 1106 -1.0
1105 1159 -1.0
1106 1106 4.0
1106 1107 -1.0
1106 1160 -1.0
1107 1107 4.0
1107 1108 -1.0
1107 1161 -1.0
1108 1108 4.0
1108 1109 -1.0
1108 1162 -1.0
1109 1109 4.0
1109 1110 -1.0
1109 1163 -1.0
1110 1110 4.0
1110 1111 -1.0
1110 1164 -1.0
1111 1111 4.0
1111 1112 -1.0
1111 1165 -1.0
1112 1112 4.0
1112 1113 -1.0
1112 1166 -1.0
1113 1113 4.0
1113 1114 -1.0
1113 1167 -1.0
1114 1114 4.0
1114 1115 -1.0
1114 1168 -1.0
1115 1115 4.0
1115 1116 -1.0
1115 1169 -1.0
1116 1116 4.0
1116 1117 -1.0
1116 1170 -1.0
1117 1117 4.0
1117 1118 -1.0
1117 1171 -1.0
1118 1118 4.0
1118 1119 -1.0
1118 1172 -1.0
1119 1119 4.0
1119 1120 -1.0
1119 1173 -1.0
1120 1120 4.0
1120 1121 -1.0
1120 1174 -1.0
1121 1121 4.0
1121 1122 -1.0
1121 1175 -1.0
1122 1122 4.0
1122 1123 -1.0
1122 1176 -1.0
1123 1123 4.0
1123 1124 -1.0
1123 1177 -1.0
1124 1124 4.0
1124 1125 -1.0
1124 1178 -1.0
1125 1125 4.0
1125 1126 -1.0
1125 1179 -1.0
1126 1126 4.0
1126 1127 -1.0
1126 1180 -1.0
1127 1127 4.0
1127 1128 -1.0
1127 1181 -1.0
1128 1128 4.0
1128 1129 -1.0
1128 1182 -1.0
1129 1129 4.0
1129 1130 -1.0
1129 1183 -1.0
1130 1130 4.0
1130 1131 -1.0
1130 1184 -1.0
1131 1131 4.0
1131 1132 -1.0
1131 1185 -1.0
1132 1132 4.0
1132 1133 -1.0
1132 1186 -1.0
1133 1133 4.0
1133 1134 -1.0
1133 1187 -1.0
1134 1134 4.0
1134 1188 -1.0
1135 1135 4.0
1135 1136 -1.0
1135 1189 -1.0
1136 1136 4.0
1136 1137 -1.0
1136 1190 -1.0
1137 1137 4.0
1137 1138 -1.0
1137 1191 -1.0
1138 1138 4.0
1138 1139 -1.0
1138 1192 -1.0
1139 1139 4.0
1139 1140 -1.0
1139 1193 -1.0
1140 1140 4.0
1140 1141 -1.0
1140 1194 -1.0
1141 1141 4.0
1141 1142 -1.0
1141 1195 -1.0
1142 1142 4.0
1142 1143 -1.0
1142 1196 -1.0
1143 1143 4.0
1143 1144 -1.0
1143 1197 -1.0
1144 1144 4.0
1144 1145 -1.0
1144 1198 -1.0
1145 1145 4.0
1145 1146 -1.0
1145 1199 -1.0
1146 1146 4.0
1146 1147 -1.0
1146 1200 -1.0
1147 1147 4.0
1147 1148 -1.0
1147 1201 -1.0
1148 1148 4.0
1148 1149 -1.0
1148 1202 -1.0
1149 1149 4.0
1149 1150 -1.0
1149 1203 -1.0
1150 1150 4.0
1150 1151 -1.0
1150 1204 -1.0
1151 1151 4.0
1151 1152 -1.0
1151 1205 -1.0
1152 1152 4.0
1152 1153 -1.0
1152 1206 -1.0
1153 1153 4.0
1153 1154 -1.0
1153 1207 -1.0
1154 1154 4.0
1154 1155 -1.0
1154 1208 -1.0
1155 1155 4.0
1155 1156 -1.0
1155 1209 -1.0
1156 1156 4.0
1156 1157 -1.0
1156 1210 -1.0
1157 1157 4.0
1157 1158 -1.0
1157 1211 -1.0
1158 1158 4.0
1158 1159 -1.0
1158 1212 -1.0
1159 1159 4.0
1159 1160 -1.0
1159 1213 -1.0
1160 1160 4.0
1160 1161 -1.0
1160 1214 -1.0
1161 1161 4.0
1161 1162 -1.0
1161 1215 -1.0
1162 1162 4.0
1162 1163 -1.0
1162 1216 -1.0
1163 1163 4.0
1163 1164 -1.0
1163 1217 -1.0
1164 1164 4.0
1164 1165 -1.0
1164 1218 -1.0
1165 1165 4.0
1165 1166 -1.0
1165 1219 -1.0
1166 1166 4.0
1166 1167 -1.0
1166 1220 -1.0
1167 1167 4.0
1167 1168 -1.0
1167 1221 -1.0
1168 1168 4.0
1168 1169 -1.0
1168 1222 -1.0
1169 1169 4.0
1169 1170 -1.0
1169 1223 -1.0
1170 1170 4.0
1170 1171 -1.0
1170 1224 -1.0
1171 1171 4.0
1171 1172 -1.0
1171 1225 -1.0
1172 1172 4.0
1172 1173 -1.0
1172 1226 -1.0
1173 1173 4.0
1173 1174 -1.0
1173 1227 -1.0
1174 1174 4.0
1174 1175 -1.0
1174 1228 -1.0
1175 1175 4.0
1175 1176 -1.0
1175 1229 -1.0
1176 1176 4.0
1176 1177 -1.0
1176 1230 -1.0
1177 1177 4.0
1177 1178 -1.0
1177 1231 -1.0
1178 1178 4.0
1178 1179 -1.0
1178 1232 -1.0
1179 1179 4.0
1179 1180 -1.0
1179 1233 -1.0
1180 1180 4.0
1180 1181 -1.0
1180 1234 -1.0
1181 1181 4.0
1181 1182 -1.0
1181 1235 -1.0
1182 1182 4.0
1182 1183 -1.0
1182 1236 -1.0
1183 1183 4.0
1183 1184 -1.0
1183 1237 -1.0
1184 1184 4.0
1184 1185 -1.0
1184 1238 -1.0
1185 1185 4.0
1185 1186 -1.0
1185 1239 -1.0
1186 1186 4.0
1186 1187 -1.0
1186 1240 -1.0
1187 1187 4.0
1187 1188 -1.0
1187 1241 -1.0
1188 1188 4.0
1188 1242 -1.0
1189 1189 4.0
1189 1190 -1.0
1189 1243 -1.0
1190 1190 4.0
1190 1191 -1.0
1190 1244 -1.0
1191 1191 4.0
1191 1192 -1.0
1191 1245 -1.0
1192 1192 4.0
1192 1193 -1.0
1192 1246 -1.0
1193 1193 4.0
1193 1194 -1.0
1193 1247 -1.0
1194 1194 4.0
1194 1195 -1.0
1194 1248 -1.0
1195 1195 4.0
1195 1196 -1.0
1195 1249 -1.0
1196 1196 4.0
1196 1197 -1.0
1196 1250 -1.0
1197 1197 4.0
1197 1198 -1.0
1197 1251 -1.0
1198 1198 4.0
1198 1199 -1.0
1198 1252 -1.0
1199 1199 4.0
1199 1200 -1.0
1199 1253 -1.0
1200 1200 4.0
1200 1201 -1.0
1200 1254 -1.0
1201 1201 4.0
1201 1202 -1.0
1201 1255 -1.0
1202 1202 4.0
1202 1203 -1.0
1202 1256 -1.0
1203 1203 4.0
1203 1204 -1.0
1203 1257 -1.0
1204 1204 4.0
1204 1205 -1.0
1204 1258 -1.0
1205 1205 4.0
1205 1206 -1.0
1205 1259 -1.0
1206 1206 4.0
1206 1207 -1.0
1206 1260 -1.0
1207 1207 4.0
1207 1208 -1.0
1207 1261 -1.0
1208 1208 4.0
1208 1209 -1.0
1208 1262 -1.0
1209 1209 4.0
1209 1210 -1.0
1209 1263 -1.0
1210 1210 4.0
1210 1211 -1.0
1210 1264 -1.0
1211 1211 4.0
1211 1212 -1.0
1211 1265 -1.0
1212 1212 4.0
1212 1213 -1.0
1212 1266 -1.0
1213 1213 4.0
1213 1214 -1.0
1213 1267 -1.0
1214 1214 4.0
1214 1215 -1.0
1214 1268 -1.0
1215 1215 4.0
1215 1216 -1.0
1215 1269 -1.0
1216 1216 4.0
1216 1217 -1.0
1216 1270 -1.0
1217 1217 4.0
1217 1218 -1.0
1217 1271 -1.0
1218 1218 4.0
1218 1219 -1.0
1218 1272 -1.0
1219 1219 4.0
1219 1220 -1.0
1219 1273 -1.0
1220 1220 4.0
1220 1221 -1.0
1220 1274 -1.0
1221 1221 4.0
1221 1222 -1.0
1221 1275 -1.0
1222 1222 4.0
1222 1223 -1.0
1222 1276 -1.0
1223 1223 4.0
1223 1224 -1.0
1223 1277 -1.0
1224 1224 4.0
1224 1225 -1.0
1224 1278 -1.0
1225 1225 4.0
1225 1226 -1.0
1225 1279 -1.0
1226 1226 4.0
1226 1227 -1.0
1226 1280 -1.0
1227 1227 4.0
1227 1228 -1.0
1227 1281 -1.0
1228 1228 4.0
1228 1229 -1.0
1228 1282 -1.0
1229 1229 4.0
1229 1230 -1.0
1229 1283 -1.0
1230 1230 4.0
1230 1231 -1.0
1230 1284 -1.0
1231 1231 4.0
1231 1232 -1.0
1231 1285 -1.0
1232 1232 4.0
1232 1233 -1.0
1232 1286 -1.0
1233 1233 4.0
1233 1234 -1.0
1233 1287 -1.0
1234 1234 4.0
1234 1235 -1.0
1234 1288 -1.0
1235 1235 4.0
1235 1236 -1.0
1235 1289 -1.0
1236 1236 4.0
1236 1237 -1.0
1236 1290 -1.0
1237 1237 4.0
1237 1238 -1.0
1237 1291 -1.0
1238 1238 4.0
1238 1239 -1.0
1238 1292 -1.0
1239 1239 4.0
1239 1240 -1.0
1239 1293 -1.0
1240 1240 4.0
1240 1241 -1.0
1240 1294 -1.0
1241 1241 4.0
1241 1242 -1.0
1241 1295 -1.0
1242 1242 4.0
1242 1296 -1.0
1243 1243 4.0
1243 1244 -1.0
1243 1297 -1.0
1244 1244 4.0
1244 1245 -1.0
1244 1298 -1.0
1245 1245 4.0
1245 1246 -1.0
1245 1299 -1.0
1246 1246 4.0
1246 1247 -1.0
1246 1300 -1.0
1247 1247 4.0
1247 1248 -1.0
1247 1301 -1.0
1248 1248 4.0
1248 1249 -1.0
1248 1302 -1.0
1249 1249 4.0
1249 1250 -1.0
1249 1303 -1.0
1250 1250 4.0
1250 1251 -1.0
1250 1304 -1.0
1251 1251 4.0
1251 1252 -1.0
1251 1305 -1.0
1252 1252 4.0
1252 1253 -1.0
1252 1306 -1.0
1253 1253 4.0
1253 1254 -1.0
1253 1307 -1.0
1254 1254 4.0
1254 1255 -1.0
1254 1308 -1.0
1255 1255 4.0
1255 1256 -1.0
1255 1309 -1.0
1256 1256 4.0
1256 1257 -1.0
1256 1310 -1.0
1257 1257 4.0
1257 1258 -1.0
1257 1311 -1.0
1258 1258 4.0
1258 1259 -1.0
1258 1312 -1.0
1259 1259 4.0
1259 1260 -1.0
1259 1313 -1.0
1260 1260 4.0
1260 1261 -1.0
1260 1314 -1.0
1261 1261 4.0
1261 1262 -1.0
1261 1315 -1.0
1262 1262 4.0
1262 1263 -1.0
1262 1316 -1.0
1263 1263 4.0
1263 1264 -1.0
1263 1317 -1.0
1264 1264 4.0
1264 1265 -1.0
1264 1318 -1.0
1265 1265 4.0
1265 1266 -1.0
1265 1319 -1.0
1266 1266 4.0
1266 1267 -1.0
1266 1320 -1.0
1267 1267 4.0
1267 1268 -1.0
1267 1321 -1.0
1268 1268 4.0
1268 1269 -1.0
1268 1322 -1.0
1269 1269 4.0
1269 1270 -1.0
1269 1323 -1.0
1270 1270 4.0
1270 1271 -1.0
1270 1324 -1.0
1271 1271 4.0
1271 1272 -1.0
1271 1325 -1.0
1272 1272 4.0
1272 1273 -1.0
1272 1326 -1.0
1273 1273 4.0
1273 1274 -1.0
1273 1327 -1.0
1274 1274 4.0
1274 1275 -1.0
1274 1328 -1.0
1275 1275 4.0
1275 1276 -1.0
1275 1329 -1.0
1276 1276 4.0
1276 1277 -1.0
1276 1330 -1.0
1277 1277 4.0
1277 1278 -1.0
1277 1331 -1.0
1278 1278 4.0
1278 1279 -1.0
1278 1332 -1.0
1279 1279 4.0
1279 1280 -1.0
1279 1333 -1.0
1280 1280 4.0
1280 1281 -1.0
1280 1334 -1.0
1281 1281 4.0
1281 1282 -1.0
1281 1335 -1.0
1282 1282 4.0
1282 1283 -1.0
1282 1336 -1.0
1283 1283 4.0
1283 1284 -1.0
1283 1337 -1.0
1284 1284 4.0
1284 1285 -1.0
1284 1338 -1.0
1285 1285 4.0
1285 1286 -1.0
1285 1339 -1.0
1286 1286 4.0
1286 1287 -1.0
1286 1340 -1.0
1287 1287 4.0
1287 1288 -1.0
1287 1341 -1.0
1288 1288 4.0
1288 1289 -1.0
1288 1342 -1.0
1289 1289 4.0
1289 1290 -1.0
1289 1343 -1.0
1290 1290 4.0
1290 1291 -1.0
1290 1344 -1.0
1291 1291 4.0
1291 1292 -1.0
1291 1345 -1.0
1292 1292 4.0
1292 1293 -1.0
1292 1346 -1.0
1293 1293 4.0
1293 1294 -1.0
1293 1347 -1.0
1294 1294 4.0
1294 1295 -1.0
1294 1348 -1.0
1295 1295 4.0
1295 1296 -1.0
1295 1349 -1.0
1296 1296 4.0
1296 1350 -1.0
1297 1297 4.0
1297 1298 -1.0
1297 1351 -1.0
1298 1298 4.0
1298 1299 -1.0
1298 1352 -1.0
1299 1299 4.0
1299 1300 -1.0
1299 1353 -1.0
1300 1300 4.0
1300 1301 -1.0
1300 1354 -1.0
1301 1301 4.0
1301 1302 -1.0
1301 1355 -1.0
1302 1302 4.0
1302 1303 -1.0
1302 1356 -1.0
1303 1303 4.0
1303 1304 -1.0
1303 1357 -1.0
1304 1304 4.0
1304 1305 -1.0
1304 1358 -1.0
1305 1305 4.0
1305 1306 -1.0
1305 1359 -1.0
1306 1306 4.0
1306 1307 -1.0
1306 1360 -1.0
1307 1307 4.0
1307 1308 -1.0
1307 1361 -1.0
1308 1308 4.0
1308 1309 -1.0
1308 1362 -1.0
1309 1309 4.0
1309 1310 -1.0
1309 1363 -1.0
1310 1310 4.0
1310 1311 -1.0
1310 1364 -1.0
1311 1311 4.0
1311 1312 -1.0
1311 1365 -1.0
1312 1312 4.0
1312 1313 -1.0
1312 1366 -1.0
1313 1313 4.0
1313 1314 -1.0
1313 1367 -1.0
1314 1314 4.0
1314 1315 -1.0
1314 1368 -1.0
1315 1315 4.0
1315 1316 -1.0
1315 1369 -1.0
1316 1316 4.0
1316 1317 -1.0
1316 1370 -1.0
1317 1317 4.0
1317 1318 -1.0
1317 1371 -1.0
1318 1318 4.0
1318 1319 -1.0
1318 1372 -1.0
1319 1319 4.0
1319 1320 -1.0
1319 1373 -1.0
1320 1320 4.0
1320 1321 -1.0
1320 1374 -1.0
1321 1321 4.0
1321 1322 -1.0
1321 1375 -1.0
1322 1322 4.0
1322 1323 -1.0
1322 1376 -1.0
1323 1323 4.0
1323 1324 -1.0
1323 1377 -1.0
1324 1324 4.0
1324 1325 -1.0
1324 1378 -1.0
1325 1325 4.0
1325 1326 -1.0
1325 1379 -1.0
1326 1326 4.0
1326 1327 -1.0
1326 1380 -1.0
1327 1327 4.0
1327 1328 -1.0
1327 1381 -1.0
1328 1328 4.0
1328 1329 -1.0
1328 1382 -1.0
1329 1329 4.0
1329 1330 -1.0
1329 1383 -1.0
1330 1330 4.0
1330 1331 -1.0
1330 1384 -1.0
1331 1331 4.0
1331 1332 -1.0
1331 1385 -1.0
1332 1332 4.0
1332 1333 -1.0
1332 1386 -1.0
1333 1333 4.0
1333 1334 -1.0
1333 1387 -1.0
1334 1334 4.0
1334 1335 -1.0
1334 1388 -1.0
1335 1335 4.0
1335 1336 -1.0
1335 1389 -1.0
1336 1336 4.0
1336 1337 -1.0
1336 1390 -1.0
1337 1337 4.0
1337 1338 -1.0
1337 1391 -1.0
1338 1338 4.0
1338 1339 -1.0
1338 1392 -1.0
1339 1339 4.0
1339 1340 -1.0
1339 1393 -1.0
1340 1340 4.0
1340 1341 -1.0
1340 1394 -1.0
1341 1341 4.0
1341 1342 -1.0
1341 1395 -1.0
1342 1342 4.0
1342 1343 -1.0
1342 1396 -1.0
1343 1343 4.0
1343 1344 -1.0
1343 1397 -1.0
1344 1344 4.0
1344 1345 -1.0
1344 1398 -1.0
1345 1345 4.0
1345 1346 -1.0
1345 1399 -1.0
1346 1346 4.0
1346 1347 -1.0
1346 1400 -1.0
1347 1347 4.0
1347 1348 -1.0
1347 1401 -1.0
1348 1348 4.0
1348 1349 -1.0
1348 1402 -1.0
1349 1349 4.0
1349 1350 -1.0
1349 1403 -1.0
1350 1350 4.0
1350 1404 -1.0
1351 1351 4.0
1351 1352 -1.0
1351 1405 -1.0
1352 1352 4.0
1352 1353 -1.0
1352 1406 -1.0
1353 1353 4.0
1353 1354 -1.0
1353 1407 -1.0
1354 1354 4.0
1354 1355 -1.0
1354 1408 -1.0
1355 1355 4.0
1355 1356 -1.0
1355 1409 -1.0
1356 1356 4.0
1356 1357 -1.0
1356 1410 -1.0
1357 1357 4.0
1357 1358 -1.0
1357 1411 -1.0
1358 1358 4.0
1358 1359 -1.0
1358 1412 -1.0
1359 1359 4.0
1359 1360 -1.0
1359 1413 -1.0
1360 1360 4.0
1360 1361 -1.0
1360 1414 -1.0
1361 1361 4.0
1361 1362 -1.0
1361 1415 -1.0
1362 1362 4.0
1362 1363 -1.0
1362 1416 -1.0
1363 1363 4.0
1363 1364 -1.0
1363 1417 -1.0
1364 1364 4.0
1364 1365 -1.0
1364 1418 -1.0
1365 1365 4.0
1365 1366 -1.0
1365 1419 -1.0
1366 1366 4.0
1366 1367 -1.0
1366 1420 -1.0
1367 1367 4.0
1367 1368 -1.0
1367 1421 -1.0
1368 1368 4.0
1368 1369 -1.0
1368 1422 -1.0
1369 1369 4.0
1369 1370 -1.0
1369 1423 -1.0
1370 1370 4.0
1370 1371 -1.0
1370 1424 -1.0
1371 1371 4.0
1371 1372 -1.0
1371 1425 -1.0
1372 1372 4.0
1372 1373 -1.0
1372 1426 -1.0
1373 1373 4.0
1373 1374 -1.0
1373 1427 -1.0
1374 1374 4.0
1374 1375 -1.0
1374 1428 -1.0
1375 1375 4.0
1375 1376 -1.0
1375 1429 -1.0
1376 1376 4.0
1376 1377 -1.0
1376 1430 -1.0
1377 1377 4.0
1377 1378 -1.0
1377 1431 -1.0
1378 1378 4.0
1378 1379 -1.0
1378 1432 -1.0
1379 1379 4.0
1379 1380 -1.0
1379 1433 -1.0
1380 1380 4.0
1380 1381 -1.0
1380 1434 -1.0
1381 1381 4.0
1381 1382 -1.0
1381 1435 -1.0
1382 1382 4.0
1382 1383 -1.0
1382 1436 -1.0
1383 1383 4.0
1383 1384 -1.0
1383 1437 -1.0
1384 1384 4.0
1384 1385 -1.0
1384 1438 -1.0
1385 1385 4.0
1385 1386 -1.0
1385 1439 -1.0
1386 1386 4.0
1386 1387 -1.0
1386 1440 -1.0
1387 1387 4.0
1387 1388 -1.0
1387 1441 -1.0
1388 1388 4.0
1388 1389 -1.0
1388 1442 -1.0
1389 1389 4.0
1389 1390 -1.0
1389 1443 -1.0
1390 1390 4.0
1390 1391 -1.0
1390 1444 -1.0
1391 1391 4.0
1391 1392 -1.0
1391 1445 -1.0
1392 1392 4.0
1392 1393 -1.0
1392 1446 -1.0
1393 1393 4.0
1393 1394 -1.0
1393 1447 -1.0
1394 1394 4.0
1394 1395 -1.0
1394 1448 -1.0
1395 1395 4.0
1395 1396 -1.0
1395 1449 -1.0
1396 1396 4.0
1396 1397 -1.0
1396 1450 -1.0
1397 1397 4.0
1397 1398 -1.0
1397 1451 -1.0
1398 1398 4.0
1398 1399 -1.0
1398 1452 -1.0
1399 1399 4.0
1399 1400 -1.0
1399 1453 -1.0
1400 1400 4.0
1400 1401 -1.0
1400 1454 -1.0
1401 1401 4.0
1401 1402 -1.0
1401 1455 -1.0
1402 1402 4.0
1402 1403 -1.0
1402 1456 -1.0
1403 1403 4.0
1403 1404 -1.0
1403 1457 -1.0
1404 1404 4.0
1404 1458 -1.0
1405 1405 4.0
1405 1406 -1.0
1405 1459 -1.0
1406 1406 4.0
1406 1407 -1.0
1406 1460 -1.0
1407 1407 4.0
1407 1408 -1.0
1407 1461 -1.0
1408 1408 4.0
1408 1409 -1.0
1408 1462 -1.0
1409 1409 4.0
1409 1410 -1.0
1409 1463 -1.0
1410 1410 4.0
1410 1411 -1.0
1410 1464 -1.0
1411 1411 4.0
1411 1412 -1.0
1411 1465 -1.0
1412 1412 4.0
1412 1413 -1.0
1412 1466 -1.0
1413 1413 4.0
1413 1414 -1.0
1413 1467 -1.0
1414 1414 4.0
1414 1415 -1.0
1414 1468 -1.0
1415 1415 4.0
1415 1416 -1.0
1415 1469 -1.0
1416 1416 4.0
1416 1417 -1.0
1416 1470 -1.0
1417 1417 4.0
1417 1418 -1.0
1417 1471 -1.0
1418 1418 4.0
1418 1419 -1.0
1418 1472 -1.0
1419 1419 4.0
1419 1420 -1.0
1419 1473 -1.0
1420 1420 4.0
1420 1421 -1.0
1420 1474 -1.0
1421 1421 4.0
1421 1422 -1.0
1421 1475 -1.0
1422 1422 4.0
1422 1423 -1.0
1422 1476 -1.0
1423 1423 4.0
1423 1424 -1.0
1423 1477 -1.0
1424 1424 4.0
1424 1425 -1.0
1424 1478 -1.0
1425 1425 4.0
1425 1426 -1.0
1425 1479 -1.0
1426 1426 4.0
1426 1427 -1.0
1426 1480 -1.0
1427 1427 4.0
1427 1428 -1.0
1427 1481 -1.0
1428 1428 4.0
1428 1429 -1.0
1428 1482 -1.0
1429 1429 4.0
1429 1430 -1.0
1429 1483 -1.0
1430 1430 4.0
1430 1431 -1.0
1430 1484 -1.0
1431 1431 4.0
1431 1432 -1.0
1431 1485 -1.0
1432 1432 4.0
1432 1433 -1.0
1432 1486 -1.0
1433 1433 4.0
1433 1434 -1.0
1433 1487 -1.0
1434 1434 4.0
1434 1435 -1.0
1434 1488 -1.0
1435 1435 4.0
1435 1436 -1.0
1435 1489 -1.0
1436 1436 4.0
1436 1437 -1.0
1436 1490 -1.0
1437 1437 4.0
1437 1438 -1.0
1437 1491 -1.0
1438 1438 4.0
1438 1439 -1.0
1438 1492 -1.0
1439 1439 4.0
1439 1440 -1.0
1439 1493 -1.0
1440 1440 4.0
1440 1441 -1.0
1440 1494 -1.0
1441 1441 4.0
1441 1442 -1.0
1441 1495 -1.0
1442 1442 4.0
1442 1443 -1.0
1442 1496 -1.0
1443 1443 4.0
1443 1444 -1.0
1443 1497 -1.0
1444 1444 4.0
1444 1445 -1.0
1444 1498 -1.0
1445 1445 4.0
1445 1446 -1.0
1445 1499 -1.0
1446 1446 4.0
1446 1447 -1.0
1446 1500 -1.0
1447 1447 4.0
1447 1448 -1.0
1447 1501 -1.0
1448 1448 4.0
1448 1449 -1.0
1448 1502 -1.0
1449 1449 4.0
1449 1450 -1.0
1449 1503 -1.0
1450 1450 4.0
1450 1451 -1.0
1450 1504 -1.0
1451 1451 4.0
1451 1452 -1.0
1451 1505 -1.0
1452 1452 4.0
1452 1453 -1.0
1452 1506 -1.0
1453 1453 4.0
1453 1454 -1.0
1453 1507 -1.0
1454 1454 4.0
1454 1455 -1.0
1454 1508 -1.0
1455 1455 4.0
1455 1456 -1.0
1455 1509 -1.0
1456 1456 4.0
1456 1457 -1.0
1456 1510 -1.0
1457 1457 4.0
1457 1458 -1.0
1457 1511 -1.0
1458 1458 4.0
1458 1512 -1.0
1459 1459 4.0
1459 1460 -1.0
1459 1513 -1.0
1460 1460 4.0
1460 1461 -1.0
1460 1514 -1.0
1461 1461 4.0
1461 1462 -1.0
1461 1515 -1.0
1462 1462 4.0
1462 1463 -1.0
1462 1516 -1.0
1463 1463 4.0
1463 1464 -1.0
1463 1517 -1.0
1464 1464 4.0
1464 1465 -1.0
1464 1518 -1.0
1465 1465 4.0
1465 1466 -1.0
1465 1519 -1.0
1466 1466 4.0
1466 1467 -1.0
1466 1520 -1.0
1467 1467 4.0
1467 1468 -1.0
1467 1521 -1.0
1468 1468 4.0
1468 1469 -1.0
1468 1522 -1.0
1469 1469 4.0
1469 1470 -1.0
1469 1523 -1.0
1470 1470 4.0
1470 1471 -1.0
1470 1524 -1.0
1471 1471 4.0
1471 1472 -1.0
1471 1525 -1.0
1472 1472 4.0
1472 1473 -1.0
1472 1526 -1.0
1473 1473 4.0
1473 1474 -1.0
1473 1527 -1.0
1474 1474 4.0
1474 1475 -1.0
1474 1528 -1.0
1475 1475 4.0
1475 1476 -1.0
1475 1529 -1.0
1476 1476 4.0
1476 1477 -1.0
1476 1530 -1.0
1477 1477 4.0
1477 1478 -1.0
1477 1531 -1.0
1478 1478 4.0
1478 1479 -1.0
1478 1532 -1.0
1479 1479 4.0
1479 1480 -1.0
1479 1533 -1.0
1480 1480 4.0
1480 1481 -1.0
1480 1534 -1.0
1481 1481 4.0
1481 1482 -1.0
1481 1535 -1.0
1482 1482 4.0
1482 1483 -1.0
1482 1536 -1.0
1483 1483 4.0
1483 1484 -1.0
1483 1537 -1.0
1484 1484 4.0
1484 1485 -1.0
1484 1538 -1.0
1485 1485 4.0
1485 1486 -1.0
1485 1539 -1.0
1486 1486 4.0
1486 1487 -1.0
1486 1540 -1.0
1487 1487 4.0
1487 1488 -1.0
1487 1541 -1.0
1488 1488 4.0
1488 1489 -1.0
1488 1542 -1.0
1489 1489 4.0
1489 1490 -1.0
1489 1543 -1.0
1490 1490 4.0
1490 1491 -1.0
1490 1544 -1.0
1491 1491 4.0
1491 1492 -1.0
1491 1545 -1.0
1492 1492 4.0
1492 1493 -1.0
1492 1546 -1.0
1493 1493 4.0
1493 1494 -1.0
1493 1547 -1.0
1494 1494 4.0
1494 1495 -1.0
1494 1548 -1.0
1495 1495 4.0
1495 1496 -1.0
1495 1549 -1.0
1496 1496 4.0
1496 1497 -1.0
1496 1550 -1.0
1497 1497 4.0
1497 1498 -1.0
1497 1551 -1.0
1498 1498 4.0
1498 1499 -1.0
1498 1552 -1.0
1499 1499 4.0
1499 1500 -1.0
1499 1553 -1.0
1500 1500 4.0
1500 1501 -1.0
1500 1554 -1.0
1501 1501 4.0
1501 1502 -1.0
1501 1555 -1.0
1502 1502 4.0
1502 1503 -1.0
1502 1556 -1.0
1503 1503 4.0
1503 1504 -1.0
1503 1557 -1.0
1504 1504 4.0
1504 1505 -1.0
1504 1558 -1.0
1505 1505 4.0
1505 1506 -1.0
1505 1559 -1.0
1506 1506 4.0
1506 1507 -1.0
1506 1560 -1.0
1507 1507 4.0
1507 1508 -1.0
1507 1561 -1.0
1508 1508 4.0
1508 1509 -1.0
1508 1562 -1.0
1509 1509 4.0
1509 1510 -1.0
1509 1563 -1.0
1510 1510 4.0
1510 1511 -1.0
1510 1564 -1.0
1511 1511 4.0
1511 1512 -1.0
1511 1565 -1.0
1512 1512 4.0
1512 1566 -1.0
1513 1513 4.0
1513 1514 -1.0
1513 1567 -1.0
1514 1514 4.0
1514 1515 -1.0
1514 1568 -1.0
1515 1515 4.0
1515 1516 -1.0
1515 1569 -1.0
1516 1516 4.0
1516 1517 -1.0
1516 1570 -1.0
1517 1517 4.0
1517 1518 -1.0
1517 1571 -1.0
1518 1518 4.0
1518 1519 -1.0
1518 1572 -1.0
1519 1519 4.0
1519 1520 -1.0
1519 1573 -1.0
1520 1520 4.0
1520 1521 -1.0
1520 1574 -1.0
1521 1521 4.0
1521 1522 -1.0
1521 1575 -1.0
1522 1522 4.0
1522 1523 -1.0
1522 1576 -1.0
1523 1523 4.0
1523 1524 -1.0
1523 1577 -1.0
1524 1524 4.0
1524 1525 -1.0
1524 1578 -1.0
1525 1525 4.0
1525 1526 -1.0
1525 1579 -1.0
1526 1526 4.0
1526 1527 -1.0
1526 1580 -1.0
1527 1527 4.0
1527 1528 -1.0
1527 1581 -1.0
1528 1528 4.0
1528 1529 -1.0
1528 1582 -1.0
1529 1529 4.0
1529 1530 -1.0
1529 1583 -1.0
1530 1530 4.0
1530 1531 -1.0
1530 1584 -1.0
1531 1531 4.0
1531 1532 -1.0
1531 1585 -1.0
1532 1532 4.0
1532 1533 -1.0
1532 1586 -1.0
1533 1533 4.0
1533 1534 -1.0
1533 1587 -1.0
1534 1534 4.0
1534 1535 -1.0
1534 1588 -1.0
1535 1535 4.0
1535 1536 -1.0
1535 1589 -1.0
1536 1536 4.0
1536 1537 -1.0
1536 1590 -1.0
1537 1537 4.0
1537 1538 -1.0
1537 1591 -1.0
1538 1538 4.0
1538 1539 -1.0
1538 1592 -1.0
1539 1539 4.0
1539 1540 -1.0
1539 1593 -1.0
1540 1540 4.0
1540 1541 -1.0
1540 1594 -1.0
1541 1541 4.0
1541 1542 -1.0
1541 1595 -1.0
1542 1542 4.0
1542 1543 -1.0
1542 1596 -1.0
1543 1543 4.0
1543 1544 -1.0
1543 1597 -1.0
1544 1544 4.0
1544 1545 -1.0
1544 1598 -1.0
1545 1545 4.0
1545 1546 -1.0
1545 1599 -1.0
1546 1546 4.0
1546 1547 -1.0
1546 1600 -1.0
1547 1547 4.0
1547 1548 -1.0
1547 1601 -1.0
1548 1548 4.0
1548 1549 -1.0
1548 1602 -1.0
1549 1549 4.0
1549 1550 -1.0
1549 1603 -1.0
1550 1550 4.0
1550 1551 -1.0
1550 1604 -1.0
1551 1551 4.0
1551 1552 -1.0
1551 1605 -1.0
1552 1552 4.0
1552 1553 -1.0
1552 1606 -1.0
1553 1553 4.0
1553 1554 -1.0
1553 1607 -1.0
1554 1554 4.0
1554 1555 -1.0
1554 1608 -1.0
1555 1555 4.0
1555 1556 -1.0
1555 1609 -1.0
1556 1556 4.0
1556 1557 -1.0
1556 1610 -1.0
1557 1557 4.0
1557 1558 -1.0
1557 1611 -1.0
1558 1558 4.0
1558 1559 -1.0
1558 1612 -1.0
1559 1559 4.0
1559 1560 -1.0
1559 1613 -1.0
1560 1560 4.0
1560 1561 -1.0
1560 1614 -1.0
1561 1561 4.0
1561 1562 -1.0
1561 1615 -1.0
1562 1562 4.0
1562 1563 -1.0
1562 1616 -1.0
1563 1563 4.0
1563 1564 -1.0
1563 1617 -1.0
1564 1564 4.0
1564 1565 -1.0
1564 1618 -1.0
1565 1565 4.0
1565 1566 -1.0
1565 1619 -1.0
1566 1566 4.0
1566 1620 -1.0
1567 1567 4.0
1567 1568 -1.0
1567 1621 -1.0
1568 1568 4.0
1568 1569 -1.0
1568 1622 -1.0
1569 1569 4.0
1569 1570 -1.0
1569 1623 -1.0
1570 1570 4.0
1570 1571 -1.0
1570 1624 -1.0
1571 1571 4.0
1571 1572 -1.0
1571 1625 -1.0
1572 1572 4.0
1572 1573 -1.0
1572 1626 -1.0
1573 1573 4.0
1573 1574 -1.0
1573 1627 -1.0
1574 1574 4.0
1574 1575 -1.0
1574 1628 -1.0
1575 1575 4.0
1575 1576 -1.0
1575 1629 -1.0
1576 1576 4.0
1576 1577 -1.0
1576 1630 -1.0
1577 1577 4.0
1577 1578 -1.0
1577 1631 -1.0
1578 1578 4.0
1578 1579 -1.0
1578 1632 -1.0
1579 1579 4.0
1579 1580 -1.0
1579 1633 -1.0
1580 1580 4.0
1580 1581 -1.0
1580 1634 -1.0
1581 1581 4.0
1581 1582 -1.0
1581 1635 -1.0
1582 1582 4.0
1582 1583 -1.0
1582 1636 -1.0
1583 1583 4.0
1583 1584 -1.0
1583 1637 -1.0
1584 1584 4.0
1584 1585 -1.0
1584 1638 -1.0
1585 1585 4.0
1585 1586 -1.0
1585 1639 -1.0
1586 1586 4.0
1586 1587 -1.0
1586 1640 -1.0
1587 1587 4.0
1587 1588 -1.0
1587 1641 -1.0
1588 1588 4.0
1588 1589 -1.0
1588 1642 -1.0
1589 1589 4.0
1589 1590 -1.0
1589 1643 -1.0
1590 1590 4.0
1590 1591 -1.0
1590 1644 -1.0
1591 1591 4.0
1591 1592 -1.0
1591 1645 -1.0
1592 1592 4.0
1592 1593 -1.0
1592 1646 -1.0
1593 1593 4.0
1593 1594 -1.0
1593 1647 -1.0
1594 1594 4.0
1594 1595 -1.0
1594 1648 -1.0
1595 1595 4.0
1595 1596 -1.0
1595 1649 -1.0
1596 1596 4.0
1596 1597 -1.0
1596 1650 -1.0
1597 1597 4.0
1597 1598 -1.0
1597 1651 -1.0
1598 1598 4.0
1598 1599 -1.0
1598 1652 -1.0
1599 1599 4.0
1599 1600 -1.0
1599 1653 -1.0
1600 1600 4.0
1600 1601 -1.0
1600 1654 -1.0
1601 1601 4.0
1601 1602 -1.0
1601 1655 -1.0
1602 1602 4.0
1602 1603 -1.0
1602 1656 -1.0
1603 1603 4.0
1603 1604 -1.0
1603 1657 -1.0
1604 1604 4.0
1604 1605 -1.0
1604 1658 -1.0
1605 1605 4.0
1605 1606 -1.0
1605 1659 -1.0
1606 1606 4.0
1606 1607 -1.0
1606 1660 -1.0
1607 1607 4.0
1607 1608 -1.0
1607 1661 -1.0
1608 1608 4.0
1608 1609 -1.0
1608 1662 -1.0
1609 1609 4.0
1609 1610 -1.0
1609 1663 -1.0
1610 1610 4.0
1610 1611 -1.0
1610 1664 -1.0
1611 1611 4.0
1611 1612 -1.0
1611 1665 -1.0
1612 1612 4.0
1612 1613 -1.0
1612 1666 -1.0
1613 1613 4.0
1613 1614 -1.0
1613 1667 -1.0
1614 1614 4.0
1614 1615 -1.0
1614 1668 -1.0
1615 1615 4.0
1615 1616 -1.0
1615 1669 -1.0
1616 1616 4.0
1616 1617 -1.0
1616 1670 -1.0
1617 1617 4.0
1617 1618 -1.0
1617 1671 -1.0
1618 1618 4.0
1618 1619 -1.0
1618 1672 -1.0
1619 1619 4.0
1619 1620 -1.0
1619 1673 -1.0
1620 1620 4.0
1620 1674 -1.0
1621 1621 4.0
1621 1622 -1.0
1621 1675 -1.0
1622 1622 4.0
1622 1623 -1.0
1622 1676 -1.0
1623 1623 4.0
1623 1624 -1.0
1623 1677 -1.0
1624 1624 4.0
1624 1625 -1.0
1624 1678 -1.0
1625 1625 4.0
1625 1626 -1.0
1625 1679 -1.0
1626 1626 4.0
1626 1627 -1.0
1626 1680 -1.0
1627 1627 4.0
1627 1628 -1.0
1627 1681 -1.0
1628 1628 4.0
1628 1629 -1.0
1628 1682 -1.0
1629 1629 4.0
1629 1630 -1.0
1629 1683 -1.0
1630 1630 4.0
1630 1631 -1.0
1630 1684 -1.0
1631 1631 4.0
1631 1632 -1.0
1631 1685 -1.0
1632 1632 4.0
1632 1633 -1.0
1632 1686 -1.0
1633 1633 4.0
1633 1634 -1.0
1633 1687 -1.0
1634 1634 4.0
1634 1635 -1.0
1634 1688 -1.0
1635 1635 4.0
1635 1636 -1.0
1635 1689 -1.0
1636 1636 4.0
1636 1637 -1.0
1636 1690 -1.0
1637 1637 4.0
1637 1638 -1.0
1637 1691 -1.0
1638 1638 4.0
1638 1639 -1.0
1638 1692 -1.0
1639 1639 4.0
1639 1640 -1.0
1639 1693 -1.0
1640 1640 4.0
1640 1641 -1.0
1640 1694 -1.0
1641 1641 4.0
1641 1642 -1.0
1641 1695 -1.0
1642 1642 4.0
1642 1643 -1.0
1642 1696 -1.0
1643 1643 4.0
1643 1644 -1.0
1643 1697 -1.0
1644 1644 4.0
1644 1645 -1.0
1644 1698 -1.0
1645 1645 4.0
1645 1646 -1.0
1645 1699 -1.0
1646 1646 4.0
1646 1647 -1.0
1646 1700 -1.0
1647 1647 4.0
1647 1648 -1.0
1647 1701 -1.0
1648 1648 4.0
1648 1649 -1.0
1648 1702 -1.0
1649 1649 4.0
1649 1650 -1.0
1649 1703 -1.0
1650 1650 4.0
1650 1651 -1.0
1650 1704 -1.0
1651 1651 4.0
1651 1652 -1.0
1651 1705 -1.0
1652 1652 4.0
1652 1653 -1.0
1652 1706 -1.0
1653 1653 4.0
1653 1654 -1.0
1653 1707 -1.0
1654 1654 4.0
1654 1655 -1.0
1654 1708 -1.0
1655 1655 4.0
1655 1656 -1.0
1655 1709 -1.0
1656 1656 4.0
1656 1657 -1.0
1656 1710 -1.0
1657 1657 4.0
1657 1658 -1.0
1657 1711 -1.0
1658 1658 4.0
1658 1659 -1.0
1658 1712 -1.0
1659 1659 4.0
1659 1660 -1.0
1659 1713 -1.0
1660 1660 4.0
1660 1661 -1.0
1660 1714 -1.0
1661 1661 4.0
1661 1662 -1.0
1661 1715 -1.0
1662 1662 4.0
1662 1663 -1.0
1662 1716 -1.0
1663 1663 4.0
1663 1664 -1.0
1663 1717 -1.0
1664 1664 4.0
1664 1665 -1.0
1664 1718 -1.0
1665 1665 4.0
1665 1666 -1.0
1665 1719 -1.0
1666 1666 4.0
1666 1667 -1.0
1666 1720 -1.0
1667 1667 4.0
1667 1668 -1.0
1667 1721 -1.0
1668 1668 4.0
1668 1669 -1.0
1668 1722 -1.0
1669 1669 4.0
1669 1670 -1.0
1669 1723 -1.0
1670 1670 4.0
1670 1671 -1.0
1670 1724 -1.0
1671 1671 4.0
1671 1672 -1.0
1671 1725 -1.0
1672 1672 4.0
1672 1673 -1.0
1672 1726 -1.0
1673 1673 4.0
1673 1674 -1.0
1673 1727 -1.0
1674 1674 4.0
1674 1728 -1.0
1675 1675 4.0
1675 1676 -1.0
1675 1729 -1.0
1676 1676 4.0
1676 1677 -1.0
1676 1730 -1.0
1677 1677 4.0
1677 1678 -1.0
1677 1731 -1.0
1678 1678 4.0
1678 1679 -1.0
1678 1732 -1.0
1679 1679 4.0
1679 1680 -1.0
1679 1733 -1.0
1680 1680 4.0
1680 1681 -1.0
1680 1734 -1.0
1681 1681 4.0
1681 1682 -1.0
1681 1735 -1.0
1682 1682 4.0
1682 1683 -1.0
1682 1736 -1.0
1683 1683 4.0
1683 1684 -1.0
1683 1737 -1.0
1684 1684 4.0
1684 1685 -1.0
1684 1738 -1.0
1685 1685 4.0
1685 1686 -1.0
1685 1739 -1.0
1686 1686 4.0
1686 1687 -1.0
1686 1740 -1.0
1687 1687 4.0
1687 1688 -1.0
1687 1741 -1.0
1688 1688 4.0
1688 1689 -1.0
1688 1742 -1.0
1689 1689 4.0
1689 1690 -1.0
1689 1743 -1.0
1690 1690 4.0
1690 1691 -1.0
1690 1744 -1.0
1691 1691 4.0
1691 1692 -1.0
1691 1745 -1.0
1692 1692 4.0
1692 1693 -1.0
1692 1746 -1.0
1693 1693 4.0
1693 1694 -1.0
1693 1747 -1.0
1694 1694 4.0
1694 1695 -1.0
1694 1748 -1.0
1695 1695 4.0
1695 1696 -1.0
1695 1749 -1.0
1696 1696 4.0
1696 1697 -1.0
1696 1750 -1.0
1697 1697 4.0
1697 1698 -1.0
1697 1751 -1.0
1698 1698 4.0
1698 1699 -1.0
1698 1752 -1.0
1699 1699 4.0
1699 1700 -1.0
1699 1753 -1.0
1700 1700 4.0
1700 1701 -1.0
1700 1754 -1.0
1701 1701 4.0
1701 1702 -1.0
1701 1755 -1.0
1702 1702 4.0
1702 1703 -1.0
1702 1756 -1.0
1703 1703 4.0
1703 1704 -1.0
1703 1757 -1.0
1704 1704 4.0
1704 1705 -1.0
1704 1758 -1.0
1705 1705 4.0
1705 1706 -1.0
1705 1759 -1.0
1706 1706 4.0
1706 1707 -1.0
1706 1760 -1.0
1707 1707 4.0
1707 1708 -1.0
1707 1761 -1.0
1708 1708 4.0
1708 1709 -1.0
1708 1762 -1.0
1709 1709 4.0
1709 1710 -1.0
1709 1763 -1.0
1710 1710 4.0
1710 1711 -1.0
1710 1764 -1.0
1711 1711 4.0
1711 1712 -1.0
1711 1765 -1.0
1712 1712 4.0
1712 1713 -1.0
1712 1766 -1.0
1713 1713 4.0
1713 1714 -1.0
1713 1767 -1.0
1714 1714 4.0
1714 1715 -1.0
1714 1768 -1.0
1715 1715 4.0
1715 1716 -1.0
1715 1769 -1.0
1716 1716 4.0
1716 1717 -1.0
1716 1770 -1.0
1717 1717 4.0
1717 1718 -1.0
1717 1771 -1.0
1718 1718 4.0
1718 1719 -1.0
1718 1772 -1.0
1719 1719 4.0
1719 1720 -1.0
1719 1773 -1.0
1720 1720 4.0
1720 1721 -1.0
1720 1774 -1.0
1721 1721 4.0
1721 1722 -1.0
1721 1775 -1.0
1722 1722 4.0
1722 1723 -1.0
1722 1776 -1.0
1723 1723 4.0
1723 1724 -1.0
1723 1777 -1.0
1724 1724 4.0
1724 1725 -1.0
1724 1778 -1.0
1725 1725 4.0
1725 1726 -1.0
1725 1779 -1.0
1726 1726 4.0
1726 1727 -1.0
1726 1780 -1.0
1727 1727 4.0
1727 1728 -1.0
1727 1781 -1.0
1728 1728 4.0
1728 1782 -1.0
1729 1729 4.0
1729 1730 -1.0
1729 1783 -1.0
1730 1730 4.0
1730 1731 -1.0
1730 1784 -1.0
1731 1731 4.0
1731 1732 -1.0
1731 1785 -1.0
1732 1732 4.0
1732 1733 -1.0
1732 1786 -1.0
1733 1733 4.0
1733 1734 -1.0
1733 1787 -1.0
1734 1734 4.0
1734 1735 -1.0
1734 1788 -1.0
1735 1735 4.0
1735 1736 -1.0
1735 1789 -1.0
1736 1736 4.0
1736 1737 -1.0
1736 1790 -1.0
1737 1737 4.0
1737 1738 -1.0
1737 1791 -1.0
1738 1738 4.0
1738 1739 -1.0
1738 1792 -1.0
1739 1739 4.0
1739 1740 -1.0
1739 1793 -1.0
1740 1740 4.0
1740 1741 -1.0
1740 1794 -1.0
1741 1741 4.0
1741 1742 -1.0
1741 1795 -1.0
1742 1742 4.0
1742 1743 -1.0
1742 1796 -1.0
1743 1743 4.0
1743 1744 -1.0
1743 1797 -1.0
1744 1744 4.0
1744 1745 -1.0
1744 1798 -1.0
1745 1745 4.0
1745 1746 -1.0
1745 1799 -1.0
1746 1746 4.0
1746 1747 -1.0
1746 1800 -1.0
1747 1747 4.0
1747 1748 -1.0
1747 1801 -1.0
1748 1748 4.0
1748 1749 -1.0
1748 1802 -1.0
1749 1749 4.0
1749 1750 -1.0
1749 1803 -1.0
1750 1750 4.0
1750 1751 -1.0
1750 1804 -1.0
1751 1751 4.0
1751 1752 -1.0
1751 1805 -1.0
1752 1752 4.0
1752 1753 -1.0
1752 1806 -1.0
1753 1753 4.0
1753 1754 -1.0
1753 1807 -1.0
1754 1754 4.0
1754 1755 -1.0
1754 1808 -1.0
1755 1755 4.0
1755 1756 -1.0
1755 1809 -1.0
1756 1756 4.0
1756 1757 -1.0
1756 1810 -1.0
1757 1757 4.0
1757 1758 -1.0
1757 1811 -1.0
1758 1758 4.0
1758 1759 -1.0
1758 1812 -1.0
1759 1759 4.0
1759 1760 -1.0
1759 1813 -1.0
1760 1760 4.0
1760 1761 -1.0
1760 1814 -1.0
1761 1761 4.0
1761 1762 -1.0
1761 1815 -1.0
1762 1762 4.0
1762 1763 -1.0
1762 1816 -1.0
1763 1763 4.0
1763 1764 -1.0
1763 1817 -1.0
1764 1764 4.0
1764 1765 -1.0
1764 1818 -1.0
1765 1765 4.0
1765 1766 -1.0
1765 1819 -1.0
1766 1766 4.0
1766 1767 -1.0
1766 1820 -1.0
1767 1767 4.0
1767 1768 -1.0
1767 1821 -1.0
1768 1768 4.0
1768 1769 -1.0
1768 1822 -1.0
1769 1769 4.0
1769 1770 -1.0
1769 1823 -1.0
1770 1770 4.0
1770 1771 -1.0
1770 1824 -1.0
1771 1771 4.0
1771 1772 -1.0
1771 1825 -1.0
1772 1772 4.0
1772 1773 -1.0
1772 1826 -1.0
1773 1773 4.0
1773 1774 -1.0
1773 1827 -1.0
1774 1774 4.0
1774 1775 -1.0
1774 1828 -1.0
1775 1775 4.0
1775 1776 -1.0
1775 1829 -1.0
1776 1776 4.0
1776 1777 -1.0
1776 1830 -1.0
1777 1777 4.0
1777 1778 -1.0
1777 1831 -1.0
1778 1778 4.0
1778 1779 -1.0
1778 1832 -1.0
1779 1779 4.0
1779 1780 -1.0
1779 1833 -1.0
1780 1780 4.0
1780 1781 -1.0
1780 1834 -1.0
1781 1781 4.0
1781 1782 -1.0
1781 1835 -1.0
1782 1782 4.0
1782 1836 -1.0
1783 1783 4.0
1783 1784 -1.0
1783 1837 -1.0
1784 1784 4.0
1784 1785 -1.0
1784 1838 -1.0
1785 1785 4.0
1785 1786 -1.0
1785 1839 -1.0
1786 1786 4.0
1786 1787 -1.0
1786 1840 -1.0
1787 1787 4.0
1787 1788 -1.0
1787 1841 -1.0
1788 1788 4.0
1788 1789 -1.0
1788 1842 -1.0
1789 1789 4.0
1789 1790 -1.0
1789 1843 -1.0
1790 1790 4.0
1790 1791 -1.0
1790 1844 -1.0
1791 1791 4.0
1791 1792 -1.0
1791 1845 -1.0
1792 1792 4.0
1792 1793 -1.0
1792 1846 -1.0
1793 1793 4.0
1793 1794 -1.0
1793 1847 -1.0
1794 1794 4.0
1794 1795 -1.0
1794 1848 -1.0
1795 1795 4.0
1795 1796 -1.0
1795 1849 -1.0
1796 1796 4.0
1796 1797 -1.0
1796 1850 -1.0
1797 1797 4.0
1797 1798 -1.0
1797 1851 -1.0
1798 1798 4.0
1798 1799 -1.0
1798 1852 -1.0
1799 1799 4.0
1799 1800 -1.0
1799 1853 -1.0
1800 1800 4.0
1800 1801 -1.0
1800 1854 -1.0
1801 1801 4.0
1801 1802 -1.0
1801 1855 -1.0
1802 1802 4.0
1802 1803 -1.0
1802 1856 -1.0
1803 1803 4.0
1803 1804 -1.0
1803 1857 -1.0
1804 1804 4.0
1804 1805 -1.0
1804 1858 -1.0
1805 1805 4.0
1805 1806 -1.0
1805 1859 -1.0
1806 1806 4.0
1806 1807 -1.0
1806 1860 -1.0
1807 1807 4.0
1807 1808 -1.0
1807 1861 -1.0
1808 1808 4.0
1808 1809 -1.0
1808 1862 -1.0
1809 1809 4.0
1809 1810 -1.0
1809 1863 -1.0
1810 1810 4.0
1810 1811 -1.0
1810 1864 -1.0
1811 1811 4.0
1811 1812 -1.0
1811 1865 -1.0
1812 1812 4.0
1812 1813 -1.0
1812 1866 -1.0
1813 1813 4.0
1813 1814 -1.0
1813 1867 -1.0
1814 1814 4.0
1814 1815 -1.0
1814 1868 -1.0
1815 1815 4.0
1815 1816 -1.0
1815 1869 -1.0
1816 1816 4.0
1816 1817 -1.0
1816 1870 -1.0
1817 1817 4.0
1817 1818 -1.0
1817 1871 -1.0
1818 1818 4.0
1818 1819 -1.0
1818 1872 -1.0
1819 1819 4.0
1819 1820 -1.0
1819 1873 -1.0
1820 1820 4.0
1820 1821 -1.0
1820 1874 -1.0
1821 1821 4.0
1821 1822 -1.0
1821 1875 -1.0
1822 1822 4.0
1822 1823 -1.0
1822 1876 -1.0
1823 1823 4.0
1823 1824 -1.0
1823 1877 -1.0
1824 1824 4.0
1824 1825 -1.0
1824 1878 -1.0
1825 1825 4.0
1825 1826 -1.0
1825 1879 -1.0
1826 1826 4.0
1826 1827 -1.0
1826 1880 -1.0
1827 1827 4.0
1827 1828 -1.0
1827 1881 -1.0
1828 1828 4.0
1828 1829 -1.0
1828 1882 -1.0
1829 1829 4.0
1829 1830 -1.0
1829 1883 -1.0
1830 1830 4.0
1830 1831 -1.0
1830 1884 -1.0
1831 1831 4.0
1831 1832 -1.0
1831 1885 -1.0
1832 1832 4.0
1832 1833 -1.0
1832 1886 -1.0
1833 1833 4.0
1833 1834 -1.0
1833 1887 -1.0
1834 1834 4.0
1834 1835 -1.0
1834 1888 -1.0
1835 1835 4.0
1835 1836 -1.0
1835 1889 -1.0
1836 1836 4.0
1836 1890 -1.0
1837 1837 4.0
1837 1838 -1.0
1837 1891 -1.0
1838 1838 4.0
1838 1839 -1.0
1838 1892 -1.0
1839 1839 4.0
1839 1840 -1.0
1839 1893 -1.0
1840 1840 4.0
1840 1841 -1.0
1840 1894 -1.0
1841 1841 4.0
1841 1842 -1.0
1841 1895 -1.0
1842 1842 4.0
1842 1843 -1.0
1842 1896 -1.0
1843 1843 4.0
1843 1844 -1.0
1843 1897 -1.0
1844 1844 4.0
1844 1845 -1.0
1844 1898 -1.0
1845 1845 4.0
1845 1846 -1.0
1845 1899 -1.0
1846 1846 4.0
1846 1847 -1.0
1846 1900 -1.0
1847 1847 4.0
1847 1848 -1.0
1847 1901 -1.0
1848 1848 4.0
1848 1849 -1.0
1848 1902 -1.0
1849 1849 4.0
1849 1850 -1.0
1849 1903 -1.0
1850 1850 4.0
1850 1851 -1.0
1850 1904 -1.0
1851 1851 4.0
1851 1852 -1.0
1851 1905 -1.0
1852 1852 4.0
1852 1853 -1.0
1852 1906 -1.0
1853 1853 4.0
1853 1854 -1.0
1853 1907 -1.0
1854 1854 4.0
1854 1855 -1.0
1854 1908 -1.0
1855 1855 4.0
1855 1856 -1.0
1855 1909 -1.0
1856 1856 4.0
1856 1857 -1.0
1856 1910 -1.0
1857 1857 4.0
1857 1858 -1.0
1857 1911 -1.0
1858 1858 4.0
1858 1859 -1.0
1858 1912 -1.0
1859 1859 4.0
1859 1860 -1.0
1859 1913 -1.0
1860 1860 4.0
1860 1861 -1.0
1860 1914 -1.0
1861 1861 4.0
1861 1862 -1.0
1861 1915 -1.0
1862 1862 4.0
1862 1863 -1.0
1862 1916 -1.0
1863 1863 4.0
1863 1864 -1.0
1863 1917 -1.0
1864 1864 4.0
1864 1865 -1.0
1864 1918 -1.0
1865 1865 4.0
1865 1866 -1.0
1865 1919 -1.0
1866 1866 4.0
1866 1867 -1.0
1866 1920 -1.0
1867 1867 4.0
1867 1868 -1.0
1867 1921 -1.0
1868 1868 4.0
1868 1869 -1.0
1868 1922 -1.0
1869 1869 4.0
1869 1870 -1.0
1869 1923 -1.0
1870 1870 4.0
1870 1871 -1.0
1870 1924 -1.0
1871 1871 4.0
1871 1872 -1.0
1871 1925 -1.0
1872 1872 4.0
1872 1873 -1.0
1872 1926 -1.0
1873 1873 4.0
1873 1874 -1.0
1873 1927 -1.0
1874 1874 4.0
1874 1875 -1.0
1874 1928 -1.0
1875 1875 4.0
1875 1876 -1.0
1875 1929 -1.0
1876 1876 4.0
1876 1877 -1.0
1876 1930 -1.0
1877 1877 4.0
1877 1878 -1.0
1877 1931 -1.0
1878 1878 4.0
1878 1879 -1.0
1878 1932 -1.0
1879 1879 4.0
1879 1880 -1.0
1879 1933 -1.0
1880 1880 4.0
1880 1881 -1.0
1880 1934 -1.0
1881 1881 4.0
1881 1882 -1.0
1881 1935 -1.0
1882 1882 4.0
1882 1883 -1.0
1882 1936 -1.0
1883 1883 4.0
1883 1884 -1.0
1883 1937 -1.0
1884 1884 4.0
1884 1885 -1.0
1884 1938 -1.0
1885 1885 4.0
1885 1886 -1.0
1885 1939 -1.0
1886 1886 4.0
1886 1887 -1.0
1886 1940 -1.0
1887 1887 4.0
1887 1888 -1.0
1887 1941 -1.0
1888 1888 4.0
1888 1889 -1.0
1888 1942 -1.0
1889 1889 4.0
1889 1890 -1.0
1889 1943 -1.0
1890 1890 4.0
1890 1944 -1.0
1891 1891 4.0
1891 1892 -1.0
1891 1945 -1.0
1892 1892 4.0
1892 1893 -1.0
1892 1946 -1.0
1893 1893 4.0
1893 1894 -1.0
1893 1947 -1.0
1894 1894 4.0
1894 1895 -1.0
1894 1948 -1.0
1895 1895 4.0
1895 1896 -1.0
1895 1949 -1.0
1896 1896 4.0
1896 1897 -1.0
1896 1950 -1.0
1897 1897 4.0
1897 1898 -1.0
1897 1951 -1.0
1898 1898 4.0
1898 1899 -1.0
1898 1952 -1.0
1899 1899 4.0
1899 1900 -1.0
1899 1953 -1.0
1900 1900 4.0
1900 1901 -1.0
1900 1954 -1.0
1901 1901 4.0
1901 1902 -1.0
1901 1955 -1.0
1902 1902 4.0
1902 1903 -1.0
1902 1956 -1.0
1903 1903 4.0
1903 1904 -1.0
1903 1957 -1.0
1904 1904 4.0
1904 1905 -1.0
1904 1958 -1.0
1905 1905 4.0
1905 1906 -1.0
1905 1959 -1.0
1906 1906 4.0
1906 1907 -1.0
1906 1960 -1.0
1907 1907 4.0
1907 1908 -1.0
1907 1961 -1.0
1908 1908 4.0
1908 1909 -1.0
1908 1962 -1.0
1909 1909 4.0
1909 1910 -1.0
1909 1963 -1.0
1910 1910 4.0
1910 1911 -1.0
1910 1964 -1.0
1911 1911 4.0
1911 1912 -1.0
1911 1965 -1.0
1912 1912 4.0
1912 1913 -1.0
1912 1966 -1.0
1913 1913 4.0
1913 1914 -1.0
1913 1967 -1.0
1914 1914 4.0
1914 1915 -1.0
1914 1968 -1.0
1915 1915 4.0
1915 1916 -1.0
1915 1969 -1.0
1916 1916 4.0
1916 1917 -1.0
1916 1970 -1.0
1917 1917 4.0
1917 1918 -1.0
1917 1971 -1.0
1918 1918 4.0
1918 1919 -1.0
1918 1972 -1.0
1919 1919 4.0
1919 1920 -1.0
1919 1973 -1.0
1920 1920 4.0
1920 1921 -1.0
1920 1974 -1.0
1921 1921 4.0
1921 1922 -1.0
1921 1975 -1.0
1922 1922 4.0
1922 1923 -1.0
1922 1976 -1.0
1923 1923 4.0
1923 1924 -1.0
1923 1977 -1.0
1924 1924 4.0
1924 1925 -1.0
1924 1978 -1.0
1925 1925 4.0
1925 1926 -1.0
1925 1979 -1.0
1926 1926 4.0
1926 1927 -1.0
1926 1980 -1.0
1927 1927 4.0
1927 1928 -1.0
1927 1981 -1.0
1928 1928 4.0
1928 1929 -1.0
1928 1982 -1.0
1929 1929 4.0
1929 1930 -1.0
1929 1983 -1.0
1930 1930 4.0
1930 1931 -1.0
1930 1984 -1.0
1931 1931 4.0
1931 1932 -1.0
1931 1985 -1.0
1932 1932 4.0
1932 1933 -1.0
1932 1986 -1.0
1933 1933 4.0
1933 1934 -1.0
1933 1987 -1.0
1934 1934 4.0
1934 1935 -1.0
1934 1988 -1.0
1935 1935 4.0
1935 1936 -1.0
1935 1989 -1.0
1936 1936 4.0
1936 1937 -1.0
1936 1990 -1.0
1937 1937 4.0
1937 1938 -1.0
1937 1991 -1.0
1938 1938 4.0
1938 1939 -1.0
1938 1992 -1.0
1939 1939 4.0
1939 1940 -1.0
1939 1993 -1.0
1940 1940 4.0
1940 1941 -1.0
1940 1994 -1.0
1941 1941 4.0
1941 1942 -1.0
1941 1995 -1.0
1942 1942 4.0
1942 1943 -1.0
1942 1996 -1.0
1943 1943 4.0
1943 1944 -1.0
1943 1997 -1.0
1944 1944 4.0
1944 1998 -1.0
1945 1945 4.0
1945 1946 -1.0
1945 1999 -1.0
1946 1946 4.0
1946 1947 -1.0
1946 2000 -1.0
1947 1947 4.0
1947 1948 -1.0
1947 2001 -1.0
1948 1948 4.0
1948 1949 -1.0
1948 2002 -1.0
1949 1949 4.0
1949 1950 -1.0
1949 2003 -1.0
1950 1950 4.0
1950 1951 -1.0
1950 2004 -1.0
1951 1951 4.0
1951 1952 -1.0
1951 2005 -1.0
1952 1952 4.0
1952 1953 -1.0
1952 2006 -1.0
1953 1953 4.0
1953 1954 -1.0
1953 2007 -1.0
1954 1954 4.0
1954 1955 -1.0
1954 2008 -1.0
1955 1955 4.0
1955 1956 -1.0
1955 2009 -1.0
1956 1956 4.0
1956 1957 -1.0
1956 2010 -1.0
1957 1957 4.0
1957 1958 -1.0
1957 2011 -1.0
1958 1958 4.0
1958 1959 -1.0
1958 2012 -1.0
1959 1959 4.0
1959 1960 -1.0
1959 2013 -1.0
1960 1960 4.0
1960 1961 -1.0
1960 2014 -1.0
1961 1961 4.0
1961 1962 -1.0
1961 2015 -1.0
1962 1962 4.0
1962 1963 -1.0
1962 2016 -1.0
1963 1963 4.0
1963 1964 -1.0
1963 2017 -1.0
1964 1964 4.0
1964 1965 -1.0
1964 2018 -1.0
1965 1965 4.0
1965 1966 -1.0
1965 2019 -1.0
1966 1966 4.0
1966 1967 -1.0
1966 2020 -1.0
1967 1967 4.0
1967 1968 -1.0
1967 2021 -1.0
1968 1968 4.0
1968 1969 -1.0
1968 2022 -1.0
1969 1969 4.0
1969 1970 -1.0
1969 2023 -1.0
1970 1970 4.0
1970 1971 -1.0
1970 2024 -1.0
1971 1971 4.0
1971 1972 -1.0
1971 2025 -1.0
1972 1972 4.0
1972 1973 -1.0
1972 2026 -1.0
1973 1973 4.0
1973 1974 -1.0
1973 2027 -1.0
1974 1974 4.0
1974 1975 -1.0
1974 2028 -1.0
1975 1975 4.0
1975 1976 -1.0
1975 2029 -1.0
1976 1976 4.0
1976 1977 -1.0
1976 2030 -1.0
1977 1977 4.0
1977 1978 -1.0
1977 2031 -1.0
1978 1978 4.0
1978 1979 -1.0
1978 2032 -1.0
1979 1979 4.0
1979 1980 -1.0
1979 2033 -1.0
1980 1980 4.0
1980 1981 -1.0
1980 2034 -1.0
1981 1981 4.0
1981 1982 -1.0
1981 2035 -1.0
1982 1982 4.0
1982 1983 -1.0
1982 2036 -1.0
1983 1983 4.0
1983 1984 -1.0
1983 2037 -1.0
1984 1984 4.0
1984 1985 -1.0
1984 2038 -1.0
1985 1985 4.0
1985 1986 -1.0
1985 2039 -1.0
1986 1986 4.0
1986 1987 -1.0
1986 2040 -1.0
1987 1987 4.0
1987 1988 -1.0
1987 2041 -1.0
1988 1988 4.0
1988 1989 -1.0
1988 2042 -1.0
1989 1989 4.0
1989 1990 -1.0
1989 2043 -1.0
1990 1990 4.0
1990 1991 -1.0
1990 2044 -1.0
1991 1991 4.0
1991 1992 -1.0
1991 2045 -1.0
1992 1992 4.0
1992 1993 -1.0
1992 2046 -1.0
1993 1993 4.0
1993 1994 -1.0
1993 2047 -1.0
1994 1994 4.0
1994 1995 -1.0
1994 2048 -1.0
1995 1995 4.0
1995 1996 -1.0
1995 2049 -1.0
1996 1996 4.0
1996 1997 -1.0
1996 2050 -1.0
1997 1997 4.0
1997 1998 -1.0
1997 2051 -1.0
1998 1998 4.0
1998 2052 -1.0
1999 1999 4.0
1999 2000 -1.0
1999 2053 -1.0
2000 2000 4.0
2000 2001 -1.0
2000 2054 -1.0
2001 2001 4.0
2001 2002 -1.0
2001 2055 -1.0
2002 2002 4.0
2002 2003 -1.0
2002 2056 -1.0
2003 2003 4.0
2003 2004 -1.0
2003 2057 -1.0
2004 2004 4.0
2004 2005 -1.0
2004 2058 -1.0
2005 2005 4.0
2005 2006 -1.0
2005 2059 -1.0
2006 2006 4.0
2006 2007 -1.0
2006 2060 -1.0
2007 2007 4.0
2007 2008 -1.0
2007 2061 -1.0
2008 2008 4.0
2008 2009 -1.0
2008 2062 -1.0
2009 2009 4.0
2009 2010 -1.0
2009 2063 -1.0
2010 2010 4.0
2010 2011 -1.0
2010 2064 -1.0
2011 2011 4.0
2011 2012 -1.0
2011 2065 -1.0
2012 2012 4.0
2012 2013 -1.0
2012 2066 -1.0
2013 2013 4.0
2013 2014 -1.0
2013 2067 -1.0
2014 2014 4.0
2014 2015 -1.0
2014 2068 -1.0
2015 2015 4.0
2015 2016 -1.0
2015 2069 -1.0
2016 2016 4.0
2016 2017 -1.0
2016 2070 -1.0
2017 2017 4.0
2017 2018 -1.0
2017 2071 -1.0
2018 2018 4.0
2018 2019 -1.0
2018 2072 -1.0
2019 2019 4.0
2019 2020 -1.0
2019 2073 -1.0
2020 2020 4.0
2020 2021 -1.0
2020 2074 -1.0
2021 2021 4.0
2021 2022 -1.0
2021 2075 -1.0
2022 2022 4.0
2022 2023 -1.0
2022 2076 -1.0
2023 2023 4.0
2023 2024 -1.0
2023 2077 -1.0
2024 2024 4.0
2024 2025 -1.0
2024 2078 -1.0
2025 2025 4.0
2025 2026 -1.0
2025 2079 -1.0
2026 2026 4.0
2026 2027 -1.0
2026 2080 -1.0
2027 2027 4.0
2027 2028 -1.0
2027 2081 -1.0
2028 2028 4.0
2028 2029 -1.0
2028 2082 -1.0
2029 2029 4.0
2029 2030 -1.0
2029 2083 -1.0
2030 2030 4.0
2030 2031 -1.0
2030 2084 -1.0
2031 2031 4.0
2031 2032 -1.0
2031 2085 -1.0
2032 2032 4.0
2032 2033 -1.0
2032 2086 -1.0
2033 2033 4.0
2033 2034 -1.0
2033 2087 -1.0
2034 2034 4.0
2034 2035 -1.0
2034 2088 -1.0
2035 2035 4.0
2035 2036 -1.0
2035 2089 -1.0
2036 2036 4.0
2036 2037 -1.0
2036 2090 -1.0
2037 2037 4.0
2037 2038 -1.0
2037 2091 -1.0
2038 2038 4.0
2038 2039 -1.0
2038 2092 -1.0
2039 2039 4.0
2039 2040 -1.0
2039 2093 -1.0
2040 2040 4.0
2040 2041 -1.0
2040 2094 -1.0
2041 2041 4.0
2041 2042 -1.0
2041 2095 -1.0
2042 2042 4.0
2042 2043 -1.0
2042 2096 -1.0
2043 2043 4.0
2043 2044 -1.0
2043 2097 -1.0
2044 2044 4.0
2044 2045 -1.0
2044 2098 -1.0
2045 2045 4.0
2045 2046 -1.0
2045 2099 -1.0
2046 2046 4.0
2046 2047 -1.0
2046 2100 -1.0
2047 2047 4.0
2047 2048 -1.0
2047 2101 -1.0
2048 2048 4.0
2048 2049 -1.0
2048 2102 -1.0
2049 2049 4.0
2049 2050 -1.0
2049 2103 -1.0
2050 2050 4.0
2050 2051 -1.0
2050 2104 -1.0
2051 2051 4.0
2051 2052 -1.0
2051 2105 -1.0
2052 2052 4.0
2052 2106 -1.0
2053 2053 4.0
2053 2054 -1.0
2053 2107 -1.0
2054 2054 4.0
2054 2055 -1.0
2054 2108 -1.0
2055 2055 4.0
2055 2056 -1.0
2055 2109 -1.0
2056 2056 4.0
2056 2057 -1.0
2056 2110 -1.0
2057 2057 4.0
2057 2058 -1.0
2057 2111 -1.0
2058 2058 4.0
2058 2059 -1.0
2058 2112 -1.0
2059 2059 4.0
2059 2060 -1.0
2059 2113 -1.0
2060 2060 4.0
2060 2061 -1.0
2060 2114 -1.0
2061 2061 4.0
2061 2062 -1.0
2061 2115 -1.0
2062 2062 4.0
2062 2063 -1.0
2062 2116 -1.0
2063 2063 4.0
2063 2064 -1.0
2063 2117 -1.0
2064 2064 4.0
2064 2065 -1.0
2064 2118 -1.0
2065 2065 4.0
2065 2066 -1.0
2065 2119 -1.0
2066 2066 4.0
2066 2067 -1.0
2066 2120 -1.0
2067 2067 4.0
2067 2068 -1.0
2067 2121 -1.0
2068 2068 4.0
2068 2069 -1.0
2068 2122 -1.0
2069 2069 4.0
2069 2070 -1.0
2069 2123 -1.0
2070 2070 4.0
2070 2071 -1.0
2070 2124 -1.0
2071 2071 4.0
2071 2072 -1.0
2071 2125 -1.0
2072 2072 4.0
2072 2073 -1.0
2072 2126 -1.0
2073 2073 4.0
2073 2074 -1.0
2073 2127 -1.0
2074 2074 4.0
2074 2075 -1.0
2074 2128 -1.0
2075 2075 4.0
2075 2076 -1.0
2075 2129 -1.0
2076 2076 4.0
2076 2077 -1.0
2076 2130 -1.0
2077 2077 4.0
2077 2078 -1.0
2077 2131 -1.0
2078 2078 4.0
2078 2079 -1.0
2078 2132 -1.0
2079 2079 4.0
2079 2080 -1.0
2079 2133 -1.0
2080 2080 4.0
2080 2081 -1.0
2080 2134 -1.0
2081 2081 4.0
2081 2082 -1.0
2081 2135 -1.0
2082 2082 4.0
2082 2083 -1.0
2082 2136 -1.0
2083 2083 4.0
2083 2084 -1.0
2083 2137 -1.0
2084 2084 4.0
2084 2085 -1.0
2084 2138 -1.0
2085 2085 4.0
2085 2086 -1.0
2085 2139 -1.0
2086 2086 4.0
2086 2087 -1.0
2086 2140 -1.0
2087 2087 4.0
2087 2088 -1.0
2087 2141 -1.0
2088 2088 4.0
2088 2089 -1.0
2088 2142 -1.0
2089 2089 4.0
2089 2090 -1.0
2089 2143 -1.0
2090 2090 4.0
2090 2091 -1.0
2090 2144 -1.0
2091 2091 4.0
2091 2092 -1.0
2091 2145 -1.0
2092 2092 4.0
2092 2093 -1.0
2092 2146 -1.0
2093 2093 4.0
2093 2094 -1.0
2093 2147 -1.0
2094 2094 4.0
2094 2095 -1.0
2094 2148 -1.0
2095 2095 4.0
2095 2096 -1.0
2095 2149 -1.0
2096 2096 4.0
2096 2097 -1.0
2096 2150 -1.0
2097 2097 4.0
2097 2098 -1.0
2097 2151 -1.0
2098 2098 4.0
2098 2099 -1.0
2098 2152 -1.0
2099 2099 4.0
2099 2100 -1.0
2099 2153 -1.0
2100 2100 4.0
2100 2101 -1.0
2100 2154 -1.0
2101 2101 4.0
2101 2102 -1.0
2101 2155 -1.0
2102 2102 4.0
2102 2103 -1.0
2102 2156 -1.0
2103 2103 4.0
2103 2104 -1.0
2103 2157 -1.0
2104 2104 4.0
2104 2105 -1.0
2104 2158 -1.0
2105 2105 4.0
2105 2106 -1.0
2105 2159 -1.0
2106 2106 4.0
2106 2160 -1.0
2107 2107 4.0
2107 2108 -1.0
2107 2161 -1.0
2108 2108 4.0
2108 2109 -1.0
2108 2162 -1.0
2109 2109 4.0
2109 2110 -1.0
2109 2163 -1.0
2110 2110 4.0
2110 2111 -1.0
2110 2164 -1.0
2111 2111 4.0
2111 2112 -1.0
2111 2165 -1.0
2112 2112 4.0
2112 2113 -1.0
2112 2166 -1.0
2113 2113 4.0
2113 2114 -1.0
2113 2167 -1.0
2114 2114 4.0
2114 2115 -1.0
2114 2168 -1.0
2115 2115 4.0
2115 2116 -1.0
2115 2169 -1.0
2116 2116 4.0
2116 2117 -1.0
2116 2170 -1.0
2117 2117 4.0
2117 2118 -1.0
2117 2171 -1.0
2118 2118 4.0
2118 2119 -1.0
2118 2172 -1.0
2119 2119 4.0
2119 2120 -1.0
2119 2173 -1.0
2120 2120 4.0
2120 2121 -1.0
2120 2174 -1.0
2121 2121 4.0
2121 2122 -1.0
2121 2175 -1.0
2122 2122 4.0
2122 2123 -1.0
2122 2176 -1.0
2123 2123 4.0
2123 2124 -1.0
2123 2177 -1.0
2124 2124 4.0
2124 2125 -1.0
2124 2178 -1.0
2125 2125 4.0
2125 2126 -1.0
2125 2179 -1.0
2126 2126 4.0
2126 2127 -1.0
2126 2180 -1.0
2127 2127 4.0
2127 2128 -1.0
2127 2181 -1.0
2128 2128 4.0
2128 2129 -1.0
2128 2182 -1.0
2129 2129 4.0
2129 2130 -1.0
2129 2183 -1.0
2130 2130 4.0
2130 2131 -1.0
2130 2184 -1.0
2131 2131 4.0
2131 2132 -1.0
2131 2185 -1.0
2132 2132 4.0
2132 2133 -1.0
2132 2186 -1.0
2133 2133 4.0
2133 2134 -1.0
2133 2187 -1.0
2134 2134 4.0
2134 2135 -1.0
2134 2188 -1.0
2135 2135 4.0
2135 2136 -1.0
2135 2189 -1.0
2136 2136 4.0
2136 2137 -1.0
2136 2190 -1.0
2137 2137 4.0
2137 2138 -1.0
2137 2191 -1.0
2138 2138 4.0
2138 2139 -1.0
2138 2192 -1.0
2139 2139 4.0
2139 2140 -1.0
2139 2193 -1.0
2140 2140 4.0
2140 2141 -1.0
2140 2194 -1.0
2141 2141 4.0
2141 2142 -1.0
2141 2195 -1.0
2142 2142 4.0
2142 2143 -1.0
2142 2196 -1.0
2143 2143 4.0
2143 2144 -1.0
2143 2197 -1.0
2144 2144 4.0
2144 2145 -1.0
2144 2198 -1.0
2145 2145 4.0
2145 2146 -1.0
2145 2199 -1.0
2146 2146 4.0
2146 2147 -1.0
2146 2200 -1.0
2147 2147 4.0
2147 2148 -1.0
2147 2201 -1.0
2148 2148 4.0
2148 2149 -1.0
2148 2202 -1.0
2149 2149 4.0
2149 2150 -1.0
2149 2203 -1.0
2150 2150 4.0
2150 2151 -1.0
2150 2204 -1.0
2151 2151 4.0
2151 2152 -1.0
2151 2205 -1.0
2152 2152 4.0
2152 2153 -1.0
2152 2206 -1.0
2153 2153 4.0
2153 2154 -1.0
2153 2207 -1.0
2154 2154 4.0
2154 2155 -1.0
2154 2208 -1.0
2155 2155 4.0
2155 2156 -1.0
2155 2209 -1.0
2156 2156 4.0
2156 2157 -1.0
2156 2210 -1.0
2157 2157 4.0
2157 2158 -1.0
2157 2211 -1.0
2158 2158 4.0
2158 2159 -1.0
2158 2212 -1.0
2159 2159 4.0
2159 2160 -1.0
2159 2213 -1.0
2160 2160 4.0
2160 2214 -1.0
2161 2161 4.0
2161 2162 -1.0
2161 2215 -1.0
2162 2162 4.0
2162 2163 -1.0
2162 2216 -1.0
2163 2163 4.0
2163 2164 -1.0
2163 2217 -1.0
2164 2164 4.0
2164 2165 -1.0
2164 2218 -1.0
2165 2165 4.0
2165 2166 -1.0
2165 2219 -1.0
2166 2166 4.0
2166 2167 -1.0
2166 2220 -1.0
2167 2167 4.0
2167 2168 -1.0
2167 2221 -1.0
2168 2168 4.0
2168 2169 -1.0
2168 2222 -1.0
2169 2169 4.0
2169 2170 -1.0
2169 2223 -1.0
2170 2170 4.0
2170 2171 -1.0
2170 2224 -1.0
2171 2171 4.0
2171 2172 -1.0
2171 2225 -1.0
2172 2172 4.0
2172 2173 -1.0
2172 2226 -1.0
2173 2173 4.0
2173 2174 -1.0
2173 2227 -1.0
2174 2174 4.0
2174 2175 -1.0
2174 2228 -1.0
2175 2175 4.0
2175 2176 -1.0
2175 2229 -1.0
2176 2176 4.0
2176 2177 -1.0
2176 2230 -1.0
2177 2177 4.0
2177 2178 -1.0
2177 2231 -1.0
2178 2178 4.0
2178 2179 -1.0
2178 2232 -1.0
2179 2179 4.0
2179 2180 -1.0
2179 2233 -1.0
2180 2180 4.0
2180 2181 -1.0
2180 2234 -1.0
2181 2181 4.0
2181 2182 -1.0
2181 2235 -1.0
2182 2182 4.0
2182 2183 -1.0
2182 2236 -1.0
2183 2183 4.0
2183 2184 -1.0
2183 2237 -1.0
2184 2184 4.0
2184 2185 -1.0
2184 2238 -1.0
2185 2185 4.0
2185 2186 -1.0
2185 2239 -1.0
2186 2186 4.0
2186 2187 -1.0
2186 2240 -1.0
2187 2187 4.0
2187 2188 -1.0
2187 2241 -1.0
2188 2188 4.0
2188 2189 -1.0
2188 2242 -1.0
2189 2189 4.0
2189 2190 -1.0
2189 2243 -1.0
2190 2190 4.0
2190 2191 -1.0
2190 2244 -1.0
2191 2191 4.0
2191 2192 -1.0
2191 2245 -1.0
2192 2192 4.0
2192 2193 -1.0
2192 2246 -1.0
2193 2193 4.0
2193 2194 -1.0
2193 2247 -1.0
2194 2194 4.0
2194 2195 -1.0
2194 2248 -1.0
2195 2195 4.0
2195 2196 -1.0
2195 2249 -1.0
2196 2196 4.0
2196 2197 -1.0
2196 2250 -1.0
2197 2197 4.0
2197 2198 -1.0
2197 2251 -1.0
2198 2198 4.0
2198 2199 -1.0
2198 2252 -1.0
2199 2199 4.0
2199 2200 -1.0
2199 2253 -1.0
2200 2200 4.0
2200 2201 -1.0
2200 2254 -1.0
2201 2201 4.0
2201 2202 -1.0
2201 2255 -1.0
2202 2202 4.0
2202 2203 -1.0
2202 2256 -1.0
2203 2203 4.0
2203 2204 -1.0
2203 2257 -1.0
2204 2204 4.0
2204 2205 -1.0
2204 2258 -1.0
2205 2205 4.0
2205 2206 -1.0
2205 2259 -1.0
2206 2206 4.0
2206 2207 -1.0
2206 2260 -1.0
2207 2207 4.0
2207 2208 -1.0
2207 2261 -1.0
2208 2208 4.0
2208 2209 -1.0
2208 2262 -1.0
2209 2209 4.0
2209 2210 -1.0
2209 2263 -1.0
2210 2210 4.0
2210 2211 -1.0
2210 2264 -1.0
2211 2211 4.0
2211 2212 -1.0
2211 2265 -1.0
2212 2212 4.0
2212 2213 -1.0
2212 2266 -1.0
2213 2213 4.0
2213 2214 -1.0
2213 2267 -1.0
2214 2214 4.0
2214 2268 -1.0
2215 2215 4.0
2215 2216 -1.0
2215 2269 -1.0
2216 2216 4.0
2216 2217 -1.0
2216 2270 -1.0
2217 2217 4.0
2217 2218 -1.0
2217 2271 -1.0
2218 2218 4.0
2218 2219 -1.0
2218 2272 -1.0
2219 2219 4.0
2219 2220 -1.0
2219 2273 -1.0
2220 2220 4.0
2220 2221 -1.0
2220 2274 -1.0
2221 2221 4.0
2221 2222 -1.0
2221 2275 -1.0
2222 2222 4.0
2222 2223 -1.0
2222 2276 -1.0
2223 2223 4.0
2223 2224 -1.0
2223 2277 -1.0
2224 2224 4.0
2224 2225 -1.0
2224 2278 -1.0
2225 2225 4.0
2225 2226 -1.0
2225 2279 -1.0
2226 2226 4.0
2226 2227 -1.0
2226 2280 -1.0
2227 2227 4.0
2227 2228 -1.0
2227 2281 -1.0
2228 2228 4.0
2228 2229 -1.0
2228 2282 -1.0
2229 2229 4.0
2229 2230 -1.0
2229 2283 -1.0
2230 2230 4.0
2230 2231 -1.0
2230 2284 -1.0
2231 2231 4.0
2231 2232 -1.0
2231 2285 -1.0
2232 2232 4.0
2232 2233 -1.0
2232 2286 -1.0
2233 2233 4.0
2233 2234 -1.0
2233 2287 -1.0
2234 2234 4.0
2234 2235 -1.0
2234 2288 -1.0
2235 2235 4.0
2235 2236 -1.0
2235 2289 -1.0
2236 2236 4.0
2236 2237 -1.0
2236 2290 -1.0
2237 2237 4.0
2237 2238 -1.0
2237 2291 -1.0
2238 2238 4.0
2238 2239 -1.0
2238 2292 -1.0
2239 2239 4.0
2239 2240 -1.0
2239 2293 -1.0
2240 2240 4.0
2240 2241 -1.0
2240 2294 -1.0
2241 2241 4.0
2241 2242 -1.0
2241 2295 -1.0
2242 2242 4.0
2242 2243 -1.0
2242 2296 -1.0
2243 2243 4.0
2243 2244 -1.0
2243 2297 -1.0
2244 2244 4.0
2244 2245 -1.0
2244 2298 -1.0
2245 2245 4.0
2245 2246 -1.0
2245 2299 -1.0
2246 2246 4.0
2246 2247 -1.0
2246 2300 -1.0
2247 2247 4.0
2247 2248 -1.0
2247 2301 -1.0
2248 2248 4.0
2248 2249 -1.0
2248 2302 -1.0
2249 2249 4.0
2249 2250 -1.0
2249 2303 -1.0
2250 2250 4.0
2250 2251 -1.0
2250 2304 -1.0
2251 2251 4.0
2251 2252 -1.0
2251 2305 -1.0
2252 2252 4.0
2252 2253 -1.0
2252 2306 -1.0
2253 2253 4.0
2253 2254 -1.0
2253 2307 -1.0
2254 2254 4.0
2254 2255 -1.0
2254 2308 -1.0
2255 2255 4.0
2255 2256 -1.0
2255 2309 -1.0
2256 2256 4.0
2256 2257 -1.0
2256 2310 -1.0
2257 2257 4.0
2257 2258 -1.0
2257 2311 -1.0
2258 2258 4.0
2258 2259 -1.0
2258 2312 -1.0
2259 2259 4.0
2259 2260 -1.0
2259 2313 -1.0
2260 2260 4.0
2260 2261 -1.0
2260 2314 -1.0
2261 2261 4.0
2261 2262 -1.0
2261 2315 -1.0
2262 2262 4.0
2262 2263 -1.0
2262 2316 -1.0
2263 2263 4.0
2263 2264 -1.0
2263 2317 -1.0
2264 2264 4.0
2264 2265 -1.0
2264 2318 -1.0
2265 2265 4.0
2265 2266 -1.0
2265 2319 -1.0
2266 2266 4.0
2266 2267 -1.0
2266 2320 -1.0
2267 2267 4.0
2267 2268 -1.0
2267 2321 -1.0
2268 2268 4.0
2268 2322 -1.0
2269 2269 4.0
2269 2270 -1.0
2269 2323 -1.0
2270 2270 4.0
2270 2271 -1.0
2270 2324 -1.0
2271 2271 4.0
2271 2272 -1.0
2271 2325 -1.0
2272 2272 4.0
2272 2273 -1.0
2272 2326 -1.0
2273 2273 4.0
2273 2274 -1.0
2273 2327 -1.0
2274 2274 4.0
2274 2275 -1.0
2274 2328 -1.0
2275 2275 4.0
2275 2276 -1.0
2275 2329 -1.0
2276 2276 4.0
2276 2277 -1.0
2276 2330 -1.0
2277 2277 4.0
2277 2278 -1.0
2277 2331 -1.0
2278 2278 4.0
2278 2279 -1.0
2278 2332 -1.0
2279 2279 4.0
2279 2280 -1.0
2279 2333 -1.0
2280 2280 4.0
2280 2281 -1.0
2280 2334 -1.0
2281 2281 4.0
2281 2282 -1.0
2281 2335 -1.0
2282 2282 4.0
2282 2283 -1.0
2282 2336 -1.0
2283 2283 4.0
2283 2284 -1.0
2283 2337 -1.0
2284 2284 4.0
2284 2285 -1.0
2284 2338 -1.0
2285 2285 4.0
2285 2286 -1.0
2285 2339 -1.0
2286 2286 4.0
2286 2287 -1.0
2286 2340 -1.0
2287 2287 4.0
2287 2288 -1.0
2287 2341 -1.0
2288 2288 4.0
2288 2289 -1.0
2288 2342 -1.0
2289 2289 4.0
2289 2290 -1.0
2289 2343 -1.0
2290 2290 4.0
2290 2291 -1.0
2290 2344 -1.0
2291 2291 4.0
2291 2292 -1.0
2291 2345 -1.0
2292 2292 4.0
2292 2293 -1.0
2292 2346 -1.0
2293 2293 4.0
2293 2294 -1.0
2293 2347 -1.0
2294 2294 4.0
2294 2295 -1.0
2294 2348 -1.0
2295 2295 4.0
2295 2296 -1.0
2295 2349 -1.0
2296 2296 4.0
2296 2297 -1.0
2296 2350 -1.0
2297 2297 4.0
2297 2298 -1.0
2297 2351 -1.0
2298 2298 4.0
2298 2299 -1.0
2298 2352 -1.0
2299 2299 4.0
2299 2300 -1.0
2299 2353 -1.0
2300 2300 4.0
2300 2301 -1.0
2300 2354 -1.0
2301 2301 4.0
2301 2302 -1.0
2301 2355 -1.0
2302 2302 4.0
2302 2303 -1.0
2302 2356 -1.0
2303 2303 4.0
2303 2304 -1.0
2303 2357 -1.0
2304 2304 4.0
2304 2305 -1.0
2304 2358 -1.0
2305 2305 4.0
2305 2306 -1.0
2305 2359 -1.0
2306 2306 4.0
2306 2307 -1.0
2306 2360 -1.0
2307 2307 4.0
2307 2308 -1.0
2307 2361 -1.0
2308 2308 4.0
2308 2309 -1.0
2308 2362 -1.0
2309 2309 4.0
2309 2310 -1.0
2309 2363 -1.0
2310 2310 4.0
2310 2311 -1.0
2310 2364 -1.0
2311 2311 4.0
2311 2312 -1.0
2311 2365 -1.0
2312 2312 4.0
2312 2313 -1.0
2312 2366 -1.0
2313 2313 4.0
2313 2314 -1.0
2313 2367 -1.0
2314 2314 4.0
2314 2315 -1.0
2314 2368 -1.0
2315 2315 4.0
2315 2316 -1.0
2315 2369 -1.0
2316 2316 4.0
2316 2317 -1.0
2316 2370 -1.0
2317 2317 4.0
2317 2318 -1.0
2317 2371 -1.0
2318 2318 4.0
2318 2319 -1.0
2318 2372 -1.0
2319 2319 4.0
2319 2320 -1.0
2319 2373 -1.0
2320 2320 4.0
2320 2321 -1.0
2320 2374 -1.0
2321 2321 4.0
2321 2322 -1.0
2321 2375 -1.0
2322 2322 4.0
2322 2376 -1.0
2323 2323 4.0
2323 2324 -1.0
2323 2377 -1.0
2324 2324 4.0
2324 2325 -1.0
2324 2378 -1.0
2325 2325 4.0
2325 2326 -1.0
2325 2379 -1.0
2326 2326 4.0
2326 2327 -1.0
2326 2380 -1.0
2327 2327 4.0
2327 2328 -1.0
2327 2381 -1.0
2328 2328 4.0
2328 2329 -1.0
2328 2382 -1.0
2329 2329 4.0
2329 2330 -1.0
2329 2383 -1.0
2330 2330 4.0
2330 2331 -1.0
2330 2384 -1.0
2331 2331 4.0
2331 2332 -1.0
2331 2385 -1.0
2332 2332 4.0
2332 2333 -1.0
2332 2386 -1.0
2333 2333 4.0
2333 2334 -1.0
2333 2387 -1.0
2334 2334 4.0
2334 2335 -1.0
2334 2388 -1.0
2335 2335 4.0
2335 2336 -1.0
2335 2389 -1.0
2336 2336 4.0
2336 2337 -1.0
2336 2390 -1.0
2337 2337 4.0
2337 2338 -1.0
2337 2391 -1.0
2338 2338 4.0
2338 2339 -1.0
2338 2392 -1.0
2339 2339 4.0
2339 2340 -1.0
2339 2393 -1.0
2340 2340 4.0
2340 2341 -1.0
2340 2394 -1.0
2341 2341 4.0
2341 2342 -1.0
2341 2395 -1.0
2342 2342 4.0
2342 2343 -1.0
2342 2396 -1.0
2343 2343 4.0
2343 2344 -1.0
2343 2397 -1.0
2344 2344 4.0
2344 2345 -1.0
2344 2398 -1.0
2345 2345 4.0
2345 2346 -1.0
2345 2399 -1.0
2346 2346 4.0
2346 2347 -1.0
2346 2400 -1.0
2347 2347 4.0
2347 2348 -1.0
2347 2401 -1.0
2348 2348 4.0
2348 2349 -1.0
2348 2402 -1.0
2349 2349 4.0
2349 2350 -1.0
2349 2403 -1.0
2350 2350 4.0
2350 2351 -1.0
2350 2404 -1.0
2351 2351 4.0
2351 2352 -1.0
2351 2405 -1.0
2352 2352 4.0
2352 2353 -1.0
2352 2406 -1.0
2353 2353 4.0
2353 2354 -1.0
2353 2407 -1.0
2354 2354 4.0
2354 2355 -1.0
2354 2408 -1.0
2355 2355 4.0
2355 2356 -1.0
2355 2409 -1.0
2356 2356 4.0
2356 2357 -1.0
2356 2410 -1.0
2357 2357 4.0
2357 2358 -1.0
2357 2411 -1.0
2358 2358 4.0
2358 2359 -1.0
2358 2412 -1.0
2359 2359 4.0
2359 2360 -1.0
2359 2413 -1.0
2360 2360 4.0
2360 2361 -1.0
2360 2414 -1.0
2361 2361 4.0
2361 2362 -1.0
2361 2415 -1.0
2362 2362 4.0
2362 2363 -1.0
2362 2416 -1.0
2363 2363 4.0
2363 2364 -1.0
2363 2417 -1.0
2364 2364 4.0
2364 2365 -1.0
2364 2418 -1.0
2365 2365 4.0
2365 2366 -1.0
2365 2419 -1.0
2366 2366 4.0
2366 2367 -1.0
2366 2420 -1.0
2367 2367 4.0
2367 2368 -1.0
2367 2421 -1.0
2368 2368 4.0
2368 2369 -1.0
2368 2422 -1.0
2369 2369 4.0
2369 2370 -1.0
2369 2423 -1.0
2370 2370 4.0
2370 2371 -1.0
2370 2424 -1.0
2371 2371 4.0
2371 2372 -1.0
2371 2425 -1.0
2372 2372 4.0
2372 2373 -1.0
2372 2426 -1.0
2373 2373 4.0
2373 2374 -1.0
2373 2427 -1.0
2374 2374 4.0
2374 2375 -1.0
2374 2428 -1.0
2375 2375 4.0
2375 2376 -1.0
2375 2429 -1.0
2376 2376 4.0
2376 2430 -1.0
2377 2377 4.0
2377 2378 -1.0
2377 2431 -1.0
2378 2378 4.0
2378 2379 -1.0
2378 2432 -1.0
2379 2379 4.0
2379 2380 -1.0
2379 2433 -1.0
2380 2380 4.0
2380 2381 -1.0
2380 2434 -1.0
2381 2381 4.0
2381 2382 -1.0
2381 2435 -1.0
2382 2382 4.0
2382 2383 -1.0
2382 2436 -1.0
2383 2383 4.0
2383 2384 -1.0
2383 2437 -1.0
2384 2384 4.0
2384 2385 -1.0
2384 2438 -1.0
2385 2385 4.0
2385 2386 -1.0
2385 2439 -1.0
2386 2386 4.0
2386 2387 -1.0
2386 2440 -1.0
2387 2387 4.0
2387 2388 -1.0
2387 2441 -1.0
2388 2388 4.0
2388 2389 -1.0
2388 2442 -1.0
2389 2389 4.0
2389 2390 -1.0
2389 2443 -1.0
2390 2390 4.0
2390 2391 -1.0
2390 2444 -1.0
2391 2391 4.0
2391 2392 -1.0
2391 2445 -1.0
2392 2392 4.0
2392 2393 -1.0
2392 2446 -1.0
2393 2393 4.0
2393 2394 -1.0
2393 2447 -1.0
2394 2394 4.0
2394 2395 -1.0
2394 2448 -1.0
2395 2395 4.0
2395 2396 -1.0
2395 2449 -1.0
2396 2396 4.0
2396 2397 -1.0
2396 2450 -1.0
2397 2397 4.0
2397 2398 -1.0
2397 2451 -1.0
2398 2398 4.0
2398 2399 -1.0
2398 2452 -1.0
2399 2399 4.0
2399 2400 -1.0
2399 2453 -1.0
2400 2400 4.0
2400 2401 -1.0
2400 2454 -1.0
2401 2401 4.0
2401 2402 -1.0
2401 2455 -1.0
2402 2402 4.0
2402 2403 -1.0
2402 2456 -1.0
2403 2403 4.0
2403 2404 -1.0
2403 2457 -1.0
2404 2404 4.0
2404 2405 -1.0
2404 2458 -1.0
2405 2405 4.0
2405 2406 -1.0
2405 2459 -1.0
2406 2406 4.0
2406 2407 -1.0
2406 2460 -1.0
2407 2407 4.0
2407 2408 -1.0
2407 2461 -1.0
2408 2408 4.0
2408 2409 -1.0
2408 2462 -1.0
2409 2409 4.0
2409 2410 -1.0
2409 2463 -1.0
2410 2410 4.0
2410 2411 -1.0
2410 2464 -1.0
2411 2411 4.0
2411 2412 -1.0
2411 2465 -1.0
2412 2412 4.0
2412 2413 -1.0
2412 2466 -1.0
2413 2413 4.0
2413 2414 -1.0
2413 2467 -1.0
2414 2414 4.0
2414 2415 -1.0
2414 2468 -1.0
2415 2415 4.0
2415 2416 -1.0
2415 2469 -1.0
2416 2416 4.0
2416 2417 -1.0
2416 2470 -1.0
2417 2417 4.0
2417 2418 -1.0
2417 2471 -1.0
2418 2418 4.0
2418 2419 -1.0
2418 2472 -1.0
2419 2419 4.0
2419 2420 -1.0
2419 2473 -1.0
2420 2420 4.0
2420 2421 -1.0
2420 2474 -1.0
2421 2421 4.0
2421 2422 -1.0
2421 2475 -1.0
2422 2422 4.0
2422 2423 -1.0
2422 2476 -1.0
2423 2423 4.0
2423 2424 -1.0
2423 2477 -1.0
2424 2424 4.0
2424 2425 -1.0
2424 2478 -1.0
2425 2425 4.0
2425 2426 -1.0
2425 2479 -1.0
2426 2426 4.0
2426 2427 -1.0
2426 2480 -1.0
2427 2427 4.0
2427 2428 -1.0
2427 2481 -1.0
2428 2428 4.0
2428 2429 -1.0
2428 2482 -1.0
2429 2429 4.0
2429 2430 -1.0
2429 2483 -1.0
2430 2430 4.0
2430 2484 -1.0
2431 2431 4.0
2431 2432 -1.0
2431 2485 -1.0
2432 2432 4.0
2432 2433 -1.0
2432 2486 -1.0
2433 2433 4.0
2433 2434 -1.0
2433 2487 -1.0
2434 2434 4.0
2434 2435 -1.0
2434 2488 -1.0
2435 2435 4.0
2435 2436 -1.0
2435 2489 -1.0
2436 2436 4.0
2436 2437 -1.0
2436 2490 -1.0
2437 2437 4.0
2437 2438 -1.0
2437 2491 -1.0
2438 2438 4.0
2438 2439 -1.0
2438 2492 -1.0
2439 2439 4.0
2439 2440 -1.0
2439 2493 -1.0
2440 2440 4.0
2440 2441 -1.0
2440 2494 -1.0
2441 2441 4.0
2441 2442 -1.0
2441 2495 -1.0
2442 2442 4.0
2442 2443 -1.0
2442 2496 -1.0
2443 2443 4.0
2443 2444 -1.0
2443 2497 -1.0
2444 2444 4.0
2444 2445 -1.0
2444 2498 -1.0
2445 2445 4.0
2445 2446 -1.0
2445 2499 -1.0
2446 2446 4.0
2446 2447 -1.0
2446 2500 -1.0
2447 2447 4.0
2447 2448 -1.0
2447 2501 -1.0
2448 2448 4.0
2448 2449 -1.0
2448 2502 -1.0
2449 2449 4.0
2449 2450 -1.0
2449 2503 -1.0
2450 2450 4.0
2450 2451 -1.0
2450 2504 -1.0
2451 2451 4.0
2451 2452 -1.0
2451 2505 -1.0
2452 2452 4.0
2452 2453 -1.0
2452 2506 -1.0
2453 2453 4.0
2453 2454 -1.0
2453 2507 -1.0
2454 2454 4.0
2454 2455 -1.0
2454 2508 -1.0
2455 2455 4.0
2455 2456 -1.0
2455 2509 -1.0
2456 2456 4.0
2456 2457 -1.0
2456 2510 -1.0
2457 2457 4.0
2457 2458 -1.0
2457 2511 -1.0
2458 2458 4.0
2458 2459 -1.0
2458 2512 -1.0
2459 2459 4.0
2459 2460 -1.0
2459 2513 -1.0
2460 2460 4.0
2460 2461 -1.0
2460 2514 -1.0
2461 2461 4.0
2461 2462 -1.0
2461 2515 -1.0
2462 2462 4.0
2462 2463 -1.0
2462 2516 -1.0
2463 2463 4.0
2463 2464 -1.0
2463 2517 -1.0
2464 2464 4.0
2464 2465 -1.0
2464 2518 -1.0
2465 2465 4.0
2465 2466 -1.0
2465 2519 -1.0
2466 2466 4.0
2466 2467 -1.0
2466 2520 -1.0
2467 2467 4.0
2467 2468 -1.0
2467 2521 -1.0
2468 2468 4.0
2468 2469 -1.0
2468 2522 -1.0
2469 2469 4.0
2469 2470 -1.0
2469 2523 -1.0
2470 2470 4.0
2470 2471 -1.0
2470 2524 -1.0
2471 2471 4.0
2471 2472 -1.0
2471 2525 -1.0
2472 2472 4.0
2472 2473 -1.0
2472 2526 -1.0
2473 2473 4.0
2473 2474 -1.0
2473 2527 -1.0
2474 2474 4.0
2474 2475 -1.0
2474 2528 -1.0
2475 2475 4.0
2475 2476 -1.0
2475 2529 -1.0
2476 2476 4.0
2476 2477 -1.0
2476 2530 -1.0
2477 2477 4.0
2477 2478 -1.0
2477 2531 -1.0
2478 2478 4.0
2478 2479 -1.0
2478 2532 -1.0
2479 2479 4.0
2479 2480 -1.0
2479 2533 -1.0
2480 2480 4.0
2480 2481 -1.0
2480 2534 -1.0
2481 2481 4.0
2481 2482 -1.0
2481 2535 -1.0
2482 2482 4.0
2482 2483 -1.0
2482 2536 -1.0
2483 2483 4.0
2483 2484 -1.0
2483 2537 -1.0
2484 2484 4.0
2484 2538 -1.0
2485 2485 4.0
2485 2486 -1.0
2485 2539 -1.0
2486 2486 4.0
2486 2487 -1.0
2486 2540 -1.0
2487 2487 4.0
2487 2488 -1.0
2487 2541 -1.0
2488 2488 4.0
2488 2489 -1.0
2488 2542 -1.0
2489 2489 4.0
2489 2490 -1.0
2489 2543 -1.0
2490 2490 4.0
2490 2491 -1.0
2490 2544 -1.0
2491 2491 4.0
2491 2492 -1.0
2491 2545 -1.0
2492 2492 4.0
2492 2493 -1.0
2492 2546 -1.0
2493 2493 4.0
2493 2494 -1.0
2493 2547 -1.0
2494 2494 4.0
2494 2495 -1.0
2494 2548 -1.0
2495 2495 4.0
2495 2496 -1.0
2495 2549 -1.0
2496 2496 4.0
2496 2497 -1.0
2496 2550 -1.0
2497 2497 4.0
2497 2498 -1.0
2497 2551 -1.0
2498 2498 4.0
2498 2499 -1.0
2498 2552 -1.0
2499 2499 4.0
2499 2500 -1.0
2499 2553 -1.0
2500 2500 4.0
2500 2501 -1.0
2500 2554 -1.0
2501 2501 4.0
2501 2502 -1.0
2501 2555 -1.0
2502 2502 4.0
2502 2503 -1.0
2502 2556 -1.0
2503 2503 4.0
2503 2504 -1.0
2503 2557 -1.0
2504 2504 4.0
2504 2505 -1.0
2504 2558 -1.0
2505 2505 4.0
2505 2506 -1.0
2505 2559 -1.0
2506 2506 4.0
2506 2507 -1.0
2506 2560 -1.0
2507 2507 4.0
2507 2508 -1.0
2507 2561 -1.0
2508 2508 4.0
2508 2509 -1.0
2508 2562 -1.0
2509 2509 4.0
2509 2510 -1.0
2509 2563 -1.0
2510 2510 4.0
2510 2511 -1.0
2510 2564 -1.0
2511 2511 4.0
2511 2512 -1.0
2511 2565 -1.0
2512 2512 4.0
2512 2513 -1.0
2512 2566 -1.0
2513 2513 4.0
2513 2514 -1.0
2513 2567 -1.0
2514 2514 4.0
2514 2515 -1.0
2514 2568 -1.0
2515 2515 4.0
2515 2516 -1.0
2515 2569 -1.0
2516 2516 4.0
2516 2517 -1.0
2516 2570 -1.0
2517 2517 4.0
2517 2518 -1.0
2517 2571 -1.0
2518 2518 4.0
2518 2519 -1.0
2518 2572 -1.0
2519 2519 4.0
2519 2520 -1.0
2519 2573 -1.0
2520 2520 4.0
2520 2521 -1.0
2520 2574 -1.0
2521 2521 4.0
2521 2522 -1.0
2521 2575 -1.0
2522 2522 4.0
2522 2523 -1.0
2522 2576 -1.0
2523 2523 4.0
2523 2524 -1.0
2523 2577 -1.0
2524 2524 4.0
2524 2525 -1.0
2524 2578 -1.0
2525 2525 4.0
2525 2526 -1.0
2525 2579 -1.0
2526 2526 4.0
2526 2527 -1.0
2526 2580 -1.0
2527 2527 4.0
2527 2528 -1.0
2527 2581 -1.0
2528 2528 4.0
2528 2529 -1.0
2528 2582 -1.0
2529 2529 4.0
2529 2530 -1.0
2529 2583 -1.0
2530 2530 4.0
2530 2531 -1.0
2530 2584 -1.0
2531 2531 4.0
2531 2532 -1.0
2531 2585 -1.0
2532 2532 4.0
2532 2533 -1.0
2532 2586 -1.0
2533 2533 4.0
2533 2534 -1.0
2533 2587 -1.0
2534 2534 4.0
2534 2535 -1.0
2534 2588 -1.0
2535 2535 4.0
2535 2536 -1.0
2535 2589 -1.0
2536 2536 4.0
2536 2537 -1.0
2536 2590 -1.0
2537 2537 4.0
2537 2538 -1.0
2537 2591 -1.0
2538 2538 4.0
2538 2592 -1.0
2539 2539 4.0
2539 2540 -1.0
2539 2593 -1.0
2540 2540 4.0
2540 2541 -1.0
2540 2594 -1.0
2541 2541 4.0
2541 2542 -1.0
2541 2595 -1.0
2542 2542 4.0
2542 2543 -1.0
2542 2596 -1.0
2543 2543 4.0
2543 2544 -1.0
2543 2597 -1.0
2544 2544 4.0
2544 2545 -1.0
2544 2598 -1.0
2545 2545 4.0
2545 2546 -1.0
2545 2599 -1.0
2546 2546 4.0
2546 2547 -1.0
2546 2600 -1.0
2547 2547 4.0
2547 2548 -1.0
2547 2601 -1.0
2548 2548 4.0
2548 2549 -1.0
2548 2602 -1.0
2549 2549 4.0
2549 2550 -1.0
2549 2603 -1.0
2550 2550 4.0
2550 2551 -1.0
2550 2604 -1.0
2551 2551 4.0
2551 2552 -1.0
2551 2605 -1.0
2552 2552 4.0
2552 2553 -1.0
2552 2606 -1.0
2553 2553 4.0
2553 2554 -1.0
2553 2607 -1.0
2554 2554 4.0
2554 2555 -1.0
2554 2608 -1.0
2555 2555 4.0
2555 2556 -1.0
2555 2609 -1.0
2556 2556 4.0
2556 2557 -1.0
2556 2610 -1.0
2557 2557 4.0
2557 2558 -1.0
2557 2611 -1.0
2558 2558 4.0
2558 2559 -1.0
2558 2612 -1.0
2559 2559 4.0
2559 2560 -1.0
2559 2613 -1.0
2560 2560 4.0
2560 2561 -1.0
2560 2614 -1.0
2561 2561 4.0
2561 2562 -1.0
2561 2615 -1.0
2562 2562 4.0
2562 2563 -1.0
2562 2616 -1.0
2563 2563 4.0
2563 2564 -1.0
2563 2617 -1.0
2564 2564 4.0
2564 2565 -1.0
2564 2618 -1.0
2565 2565 4.0
2565 2566 -1.0
2565 2619 -1.0
2566 2566 4.0
2566 2567 -1.0
2566 2620 -1.0
2567 2567 4.0
2567 2568 -1.0
2567 2621 -1.0
2568 2568 4.0
2568 2569 -1.0
2568 2622 -1.0
2569 2569 4.0
2569 2570 -1.0
2569 2623 -1.0
2570 2570 4.0
2570 2571 -1.0
2570 2624 -1.0
2571 2571 4.0
2571 2572 -1.0
2571 2625 -1.0
2572 2572 4.0
2572 2573 -1.0
2572 2626 -1.0
2573 2573 4.0
2573 2574 -1.0
2573 2627 -1.0
2574 2574 4.0
2574 2575 -1.0
2574 2628 -1.0
2575 2575 4.0
2575 2576 -1.0
2575 2629 -1.0
2576 2576 4.0
2576 2577 -1.0
2576 2630 -1.0
2577 2577 4.0
2577 2578 -1.0
2577 2631 -1.0
2578 2578 4.0
2578 2579 -1.0
2578 2632 -1.0
2579 2579 4.0
2579 2580 -1.0
2579 2633 -1.0
2580 2580 4.0
2580 2581 -1.0
2580 2634 -1.0
2581 2581 4.0
2581 2582 -1.0
2581 2635 -1.0
2582 2582 4.0
2582 2583 -1.0
2582 2636 -1.0
2583 2583 4.0
2583 2584 -1.0
2583 2637 -1.0
2584 2584 4.0
2584 2585 -1.0
2584 2638 -1.0
2585 2585 4.0
2585 2586 -1.0
2585 2639 -1.0
2586 2586 4.0
2586 2587 -1.0
2586 2640 -1.0
2587 2587 4.0
2587 2588 -1.0
2587 2641 -1.0
2588 2588 4.0
2588 2589 -1.0
2588 2642 -1.0
2589 2589 4.0
2589 2590 -1.0
2589 2643 -1.0
2590 2590 4.0
2590 2591 -1.0
2590 2644 -1.0
2591 2591 4.0
2591 2592 -1.0
2591 2645 -1.0
2592 2592 4.0
2592 2646 -1.0
2593 2593 4.0
2593 2594 -1.0
2593 2647 -1.0
2594 2594 4.0
2594 2595 -1.0
2594 2648 -1.0
2595 2595 4.0
2595 2596 -1.0
2595 2649 -1.0
2596 2596 4.0
2596 2597 -1.0
2596 2650 -1.0
2597 2597 4.0
2597 2598 -1.0
2597 2651 -1.0
2598 2598 4.0
2598 2599 -1.0
2598 2652 -1.0
2599 2599 4.0
2599 2600 -1.0
2599 2653 -1.0
2600 2600 4.0
2600 2601 -1.0
2600 2654 -1.0
2601 2601 4.0
2601 2602 -1.0
2601 2655 -1.0
2602 2602 4.0
2602 2603 -1.0
2602 2656 -1.0
2603 2603 4.0
2603 2604 -1.0
2603 2657 -1.0
2604 2604 4.0
2604 2605 -1.0
2604 2658 -1.0
2605 2605 4.0
2605 2606 -1.0
2605 2659 -1.0
2606 2606 4.0
2606 2607 -1.0
2606 2660 -1.0
2607 2607 4.0
2607 2608 -1.0
2607 2661 -1.0
2608 2608 4.0
2608 2609 -1.0
2608 2662 -1.0
2609 2609 4.0
2609 2610 -1.0
2609 2663 -1.0
2610 2610 4.0
2610 2611 -1.0
2610 2664 -1.0
2611 2611 4.0
2611 2612 -1.0
2611 2665 -1.0
2612 2612 4.0
2612 2613 -1.0
2612 2666 -1.0
2613 2613 4.0
2613 2614 -1.0
2613 2667 -1.0
2614 2614 4.0
2614 2615 -1.0
2614 2668 -1.0
2615 2615 4.0
2615 2616 -1.0
2615 2669 -1.0
2616 2616 4.0
2616 2617 -1.0
2616 2670 -1.0
2617 2617 4.0
2617 2618 -1.0
2617 2671 -1.0
2618 2618 4.0
2618 2619 -1.0
2618 2672 -1.0
2619 2619 4.0
2619 2620 -1.0
2619 2673 -1.0
2620 2620 4.0
2620 2621 -1.0
2620 2674 -1.0
2621 2621 4.0
2621 2622 -1.0
2621 2675 -1.0
2622 2622 4.0
2622 2623 -1.0
2622 2676 -1.0
2623 2623 4.0
2623 2624 -1.0
2623 2677 -1.0
2624 2624 4.0
2624 2625 -1.0
2624 2678 -1.0
2625 2625 4.0
2625 2626 -1.0
2625 2679 -1.0
2626 2626 4.0
2626 2627 -1.0
2626 2680 -1.0
2627 2627 4.0
2627 2628 -1.0
2627 2681 -1.0
2628 2628 4.0
2628 2629 -1.0
2628 2682 -1.0
2629 2629 4.0
2629 2630 -1.0
2629 2683 -1.0
2630 2630 4.0
2630 2631 -1.0
2630 2684 -1.0
2631 2631 4.0
2631 2632 -1.0
2631 2685 -1.0
2632 2632 4.0
2632 2633 -1.0
2632 2686 -1.0
2633 2633 4.0
2633 2634 -1.0
2633 2687 -1.0
2634 2634 4.0
2634 2635 -1.0
2634 2688 -1.0
2635 2635 4.0
2635 2636 -1.0
2635 2689 -1.0
2636 2636 4.0
2636 2637 -1.0
2636 2690 -1.0
2637 2637 4.0
2637 2638 -1.0
2637 2691 -1.0
2638 2638 4.0
2638 2639 -1.0
2638 2692 -1.0
2639 2639 4.0
2639 2640 -1.0
2639 2693 -1.0
2640 2640 4.0
2640 2641 -1.0
2640 2694 -1.0
2641 2641 4.0
2641 2642 -1.0
2641 2695 -1.0
2642 2642 4.0
2642 2643 -1.0
2642 2696 -1.0
2643 2643 4.0
2643 2644 -1.0
2643 2697 -1.0
2644 2644 4.0
2644 2645 -1.0
2644 2698 -1.0
2645 2645 4.0
2645 2646 -1.0
2645 2699 -1.0
2646 2646 4.0
2646 2700 -1.0
2647 2647 4.0
2647 2648 -1.0
2647 2701 -1.0
2648 2648 4.0
2648 2649 -1.0
2648 2702 -1.0
2649 2649 4.0
2649 2650 -1.0
2649 2703 -1.0
2650 2650 4.0
2650 2651 -1.0
2650 2704 -1.0
2651 2651 4.0
2651 2652 -1.0
2651 2705 -1.0
2652 2652 4.0
2652 2653 -1.0
2652 2706 -1.0
2653 2653 4.0
2653 2654 -1.0
2653 2707 -1.0
2654 2654 4.0
2654 2655 -1.0
2654 2708 -1.0
2655 2655 4.0
2655 2656 -1.0
2655 2709 -1.0
2656 2656 4.0
2656 2657 -1.0
2656 2710 -1.0
2657 2657 4.0
2657 2658 -1.0
2657 2711 -1.0
2658 2658 4.0
2658 2659 -1.0
2658 2712 -1.0
2659 2659 4.0
2659 2660 -1.0
2659 2713 -1.0
2660 2660 4.0
2660 2661 -1.0
2660 2714 -1.0
2661 2661 4.0
2661 2662 -1.0
2661 2715 -1.0
2662 2662 4.0
2662 2663 -1.0
2662 2716 -1.0
2663 2663 4.0
2663 2664 -1.0
2663 2717 -1.0
2664 2664 4.0
2664 2665 -1.0
2664 2718 -1.0
2665 2665 4.0
2665 2666 -1.0
2665 2719 -1.0
2666 2666 4.0
2666 2667 -1.0
2666 2720 -1.0
2667 2667 4.0
2667 2668 -1.0
2667 2721 -1.0
2668 2668 4.0
2668 2669 -1.0
2668 2722 -1.0
2669 2669 4.0
2669 2670 -1.0
2669 2723 -1.0
2670 2670 4.0
2670 2671 -1.0
2670 2724 -1.0
2671 2671 4.0
2671 2672 -1.0
2671 2725 -1.0
2672 2672 4.0
2672 2673 -1.0
2672 2726 -1.0
2673 2673 4.0
2673 2674 -1.0
2673 2727 -1.0
2674 2674 4.0
2674 2675 -1.0
2674 2728 -1.0
2675 2675 4.0
2675 2676 -1.0
2675 2729 -1.0
2676 2676 4.0
2676 2677 -1.0
2676 2730 -1.0
2677 2677 4.0
2677 2678 -1.0
2677 2731 -1.0
2678 2678 4.0
2678 2679 -1.0
2678 2732 -1.0
2679 2679 4.0
2679 2680 -1.0
2679 2733 -1.0
2680 2680 4.0
2680 2681 -1.0
2680 2734 -1.0
2681 2681 4.0
2681 2682 -1.0
2681 2735 -1.0
2682 2682 4.0
2682 2683 -1.0
2682 2736 -1.0
2683 2683 4.0
2683 2684 -1.0
2683 2737 -1.0
2684 2684 4.0
2684 2685 -1.0
2684 2738 -1.0
2685 2685 4.0
2685 2686 -1.0
2685 2739 -1.0
2686 2686 4.0
2686 2687 -1.0
2686 2740 -1.0
2687 2687 4.0
2687 2688 -1.0
2687 2741 -1.0
2688 2688 4.0
2688 2689 -1.0
2688 2742 -1.0
2689 2689 4.0
2689 2690 -1.0
2689 2743 -1.0
2690 2690 4.0
2690 2691 -1.0
2690 2744 -1.0
2691 2691 4.0
2691 2692 -1.0
2691 2745 -1.0
2692 2692 4.0
2692 2693 -1.0
2692 2746 -1.0
2693 2693 4.0
2693 2694 -1.0
2693 2747 -1.0
2694 2694 4.0
2694 2695 -1.0
2694 2748 -1.0
2695 2695 4.0
2695 2696 -1.0
2695 2749 -1.0
2696 2696 4.0
2696 2697 -1.0
2696 2750 -1.0
2697 2697 4.0
2697 2698 -1.0
2697 2751 -1.0
2698 2698 4.0
2698 2699 -1.0
2698 2752 -1.0
2699 2699 4.0
2699 2700 -1.0
2699 2753 -1.0
2700 2700 4.0
2700 2754 -1.0
2701 2701 4.0
2701 2702 -1.0
2701 2755 -1.0
2702 2702 4.0
2702 2703 -1.0
2702 2756 -1.0
2703 2703 4.0
2703 2704 -1.0
2703 2757 -1.0
2704 2704 4.0
2704 2705 -1.0
2704 2758 -1.0
2705 2705 4.0
2705 2706 -1.0
2705 2759 -1.0
2706 2706 4.0
2706 2707 -1.0
2706 2760 -1.0
2707 2707 4.0
2707 2708 -1.0
2707 2761 -1.0
2708 2708 4.0
2708 2709 -1.0
2708 2762 -1.0
2709 2709 4.0
2709 2710 -1.0
2709 2763 -1.0
2710 2710 4.0
2710 2711 -1.0
2710 2764 -1.0
2711 2711 4.0
2711 2712 -1.0
2711 2765 -1.0
2712 2712 4.0
2712 2713 -1.0
2712 2766 -1.0
2713 2713 4.0
2713 2714 -1.0
2713 2767 -1.0
2714 2714 4.0
2714 2715 -1.0
2714 2768 -1.0
2715 2715 4.0
2715 2716 -1.0
2715 2769 -1.0
2716 2716 4.0
2716 2717 -1.0
2716 2770 -1.0
2717 2717 4.0
2717 2718 -1.0
2717 2771 -1.0
2718 2718 4.0
2718 2719 -1.0
2718 2772 -1.0
2719 2719 4.0
2719 2720 -1.0
2719 2773 -1.0
2720 2720 4.0
2720 2721 -1.0
2720 2774 -1.0
2721 2721 4.0
2721 2722 -1.0
2721 2775 -1.0
2722 2722 4.0
2722 2723 -1.0
2722 2776 -1.0
2723 2723 4.0
2723 2724 -1.0
2723 2777 -1.0
2724 2724 4.0
2724 2725 -1.0
2724 2778 -1.0
2725 2725 4.0
2725 2726 -1.0
2725 2779 -1.0
2726 2726 4.0
2726 2727 -1.0
2726 2780 -1.0
2727 2727 4.0
2727 2728 -1.0
2727 2781 -1.0
2728 2728 4.0
2728 2729 -1.0
2728 2782 -1.0
2729 2729 4.0
2729 2730 -1.0
2729 2783 -1.0
2730 2730 4.0
2730 2731 -1.0
2730 2784 -1.0
2731 2731 4.0
2731 2732 -1.0
2731 2785 -1.0
2732 2732 4.0
2732 2733 -1.0
2732 2786 -1.0
2733 2733 4.0
2733 2734 -1.0
2733 2787 -1.0
2734 2734 4.0
2734 2735 -1.0
2734 2788 -1.0
2735 2735 4.0
2735 2736 -1.0
2735 2789 -1.0
2736 2736 4.0
2736 2737 -1.0
2736 2790 -1.0
2737 2737 4.0
2737 2738 -1.0
2737 2791 -1.0
2738 2738 4.0
2738 2739 -1.0
2738 2792 -1.0
2739 2739 4.0
2739 2740 -1.0
2739 2793 -1.0
2740 2740 4.0
2740 2741 -1.0
2740 2794 -1.0
2741 2741 4.0
2741 2742 -1.0
2741 2795 -1.0
2742 2742 4.0
2742 2743 -1.0
2742 2796 -1.0
2743 2743 4.0
2743 2744 -1.0
2743 2797 -1.0
2744 2744 4.0
2744 2745 -1.0
2744 2798 -1.0
2745 2745 4.0
2745 2746 -1.0
2745 2799 -1.0
2746 2746 4.0
2746 2747 -1.0
2746 2800 -1.0
2747 2747 4.0
2747 2748 -1.0
2747 2801 -1.0
2748 2748 4.0
2748 2749 -1.0
2748 2802 -1.0
2749 2749 4.0
2749 2750 -1.0
2749 2803 -1.0
2750 2750 4.0
2750 2751 -1.0
2750 2804 -1.0
2751 2751 4.0
2751 2752 -1.0
2751 2805 -1.0
2752 2752 4.0
2752 2753 -1.0
2752 2806 -1.0
2753 2753 4.0
2753 2754 -1.0
2753 2807 -1.0
2754 2754 4.0
2754 2808 -1.0
2755 2755 4.0
2755 2756 -1.0
2755 2809 -1.0
2756 2756 4.0
2756 2757 -1.0
2756 2810 -1.0
2757 2757 4.0
2757 2758 -1.0
2757 2811 -1.0
2758 2758 4.0
2758 2759 -1.0
2758 2812 -1.0
2759 2759 4.0
2759 2760 -1.0
2759 2813 -1.0
2760 2760 4.0
2760 2761 -1.0
2760 2814 -1.0
2761 2761 4.0
2761 2762 -1.0
2761 2815 -1.0
2762 2762 4.0
2762 2763 -1.0
2762 2816 -1.0
2763 2763 4.0
2763 2764 -1.0
2763 2817 -1.0
2764 2764 4.0
2764 2765 -1.0
2764 2818 -1.0
2765 2765 4.0
2765 2766 -1.0
2765 2819 -1.0
2766 2766 4.0
2766 2767 -1.0
2766 2820 -1.0
2767 2767 4.0
2767 2768 -1.0
2767 2821 -1.0
2768 2768 4.0
2768 2769 -1.0
2768 2822 -1.0
2769 2769 4.0
2769 2770 -1.0
2769 2823 -1.0
2770 2770 4.0
2770 2771 -1.0
2770 2824 -1.0
2771 2771 4.0
2771 2772 -1.0
2771 2825 -1.0
2772 2772 4.0
2772 2773 -1.0
2772 2826 -1.0
2773 2773 4.0
2773 2774 -1.0
2773 2827 -1.0
2774 2774 4.0
2774 2775 -1.0
2774 2828 -1.0
2775 2775 4.0
2775 2776 -1.0
2775 2829 -1.0
2776 2776 4.0
2776 2777 -1.0
2776 2830 -1.0
2777 2777 4.0
2777 2778 -1.0
2777 2831 -1.0
2778 2778 4.0
2778 2779 -1.0
2778 2832 -1.0
2779 2779 4.0
2779 2780 -1.0
2779 2833 -1.0
2780 2780 4.0
2780 2781 -1.0
2780 2834 -1.0
2781 2781 4.0
2781 2782 -1.0
2781 2835 -1.0
2782 2782 4.0
2782 2783 -1.0
2782 2836 -1.0
2783 2783 4.0
2783 2784 -1.0
2783 2837 -1.0
2784 2784 4.0
2784 2785 -1.0
2784 2838 -1.0
2785 2785 4.0
2785 2786 -1.0
2785 2839 -1.0
2786 2786 4.0
2786 2787 -1.0
2786 2840 -1.0
2787 2787 4.0
2787 2788 -1.0
2787 2841 -1.0
2788 2788 4.0
2788 2789 -1.0
2788 2842 -1.0
2789 2789 4.0
2789 2790 -1.0
2789 2843 -1.0
2790 2790 4.0
2790 2791 -1.0
2790 2844 -1.0
2791 2791 4.0
2791 2792 -1.0
2791 2845 -1.0
2792 2792 4.0
2792 2793 -1.0
2792 2846 -1.0
2793 2793 4.0
2793 2794 -1.0
2793 2847 -1.0
2794 2794 4.0
2794 2795 -1.0
2794 2848 -1.0
2795 2795 4.0
2795 2796 -1.0
2795 2849 -1.0
2796 2796 4.0
2796 2797 -1.0
2796 2850 -1.0
2797 2797 4.0
2797 2798 -1.0
2797 2851 -1.0
2798 2798 4.0
2798 2799 -1.0
2798 2852 -1.0
2799 2799 4.0
2799 2800 -1.0
2799 2853 -1.0
2800 2800 4.0
2800 2801 -1.0
2800 2854 -1.0
2801 2801 4.0
2801 2802 -1.0
2801 2855 -1.0
2802 2802 4.0
2802 2803 -1.0
2802 2856 -1.0
2803 2803 4.0
2803 2804 -1.0
2803 2857 -1.0
2804 2804 4.0
2804 2805 -1.0
2804 2858 -1.0
2805 2805 4.0
2805 2806 -1.0
2805 2859 -1.0
2806 2806 4.0
2806 2807 -1.0
2806 2860 -1.0
2807 2807 4.0
2807 2808 -1.0
2807 2861 -1.0
2808 2808 4.0
2808 2862 -1.0
2809 2809 4.0
2809 2810 -1.0
2809 2863 -1.0
2810 2810 4.0
2810 2811 -1.0
2810 2864 -1.0
2811 2811 4.0
2811 2812 -1.0
2811 2865 -1.0
2812 2812 4.0
2812 2813 -1.0
2812 2866 -1.0
2813 2813 4.0
2813 2814 -1.0
2813 2867 -1.0
2814 2814 4.0
2814 2815 -1.0
2814 2868 -1.0
2815 2815 4.0
2815 2816 -1.0
2815 2869 -1.0
2816 2816 4.0
2816 2817 -1.0
2816 2870 -1.0
2817 2817 4.0
2817 2818 -1.0
2817 2871 -1.0
2818 2818 4.0
2818 2819 -1.0
2818 2872 -1.0
2819 2819 4.0
2819 2820 -1.0
2819 2873 -1.0
2820 2820 4.0
2820 2821 -1.0
2820 2874 -1.0
2821 2821 4.0
2821 2822 -1.0
2821 2875 -1.0
2822 2822 4.0
2822 2823 -1.0
2822 2876 -1.0
2823 2823 4.0
2823 2824 -1.0
2823 2877 -1.0
2824 2824 4.0
2824 2825 -1.0
2824 2878 -1.0
2825 2825 4.0
2825 2826 -1.0
2825 2879 -1.0
2826 2826 4.0
2826 2827 -1.0
2826 2880 -1.0
2827 2827 4.0
2827 2828 -1.0
2827 2881 -1.0
2828 2828 4.0
2828 2829 -1.0
2828 2882 -1.0
2829 2829 4.0
2829 2830 -1.0
2829 2883 -1.0
2830 2830 4.0
2830 2831 -1.0
2830 2884 -1.0
2831 2831 4.0
2831 2832 -1.0
2831 2885 -1.0
2832 2832 4.0
2832 2833 -1.0
2832 2886 -1.0
2833 2833 4.0
2833 2834 -1.0
2833 2887 -1.0
2834 2834 4.0
2834 2835 -1.0
2834 2888 -1.0
2835 2835 4.0
2835 2836 -1.0
2835 2889 -1.0
2836 2836 4.0
2836 2837 -1.0
2836 2890 -1.0
2837 2837 4.0
2837 2838 -1.0
2837 2891 -1.0
2838 2838 4.0
2838 2839 -1.0
2838 2892 -1.0
2839 2839 4.0
2839 2840 -1.0
2839 2893 -1.0
2840 2840 4.0
2840 2841 -1.0
2840 2894 -1.0
2841 2841 4.0
2841 2842 -1.0
2841 2895 -1.0
2842 2842 4.0
2842 2843 -1.0
2842 2896 -1.0
2843 2843 4.0
2843 2844 -1.0
2843 2897 -1.0
2844 2844 4.0
2844 2845 -1.0
2844 2898 -1.0
2845 2845 4.0
2845 2846 -1.0
2845 2899 -1.0
2846 2846 4.0
2846 2847 -1.0
2846 2900 -1.0
2847 2847 4.0
2847 2848 -1.0
2847 2901 -1.0
2848 2848 4.0
2848 2849 -1.0
2848 2902 -1.0
2849 2849 4.0
2849 2850 -1.0
2849 2903 -1.0
2850 2850 4.0
2850 2851 -1.0
2850 2904 -1.0
2851 2851 4.0
2851 2852 -1.0
2851 2905 -1.0
2852 2852 4.0
2852 2853 -1.0
2852 2906 -1.0
2853 2853 4.0
2853 2854 -1.0
2853 2907 -1.0
2854 2854 4.0
2854 2855 -1.0
2854 2908 -1.0
2855 2855 4.0
2855 2856 -1.0
2855 2909 -1.0
2856 2856 4.0
2856 2857 -1.0
2856 2910 -1.0
2857 2857 4.0
2857 2858 -1.0
2857 2911 -1.0
2858 2858 4.0
2858 2859 -1.0
2858 2912 -1.0
2859 2859 4.0
2859 2860 -1.0
2859 2913 -1.0
2860 2860 4.0
2860 2861 -1.0
2860 2914 -1.0
2861 2861 4.0
2861 2862 -1.0
2861 2915 -1.0
2862 2862 4.0
2862 2916 -1.0
2863 2863 4.0
2863 2864 -1.0
2864 2864 4.0
2864 2865 -1.0
2865 2865 4.0
2865 2866 -1.0
2866 2866 4.0
2866 2867 -1.0
2867 2867 4.0
2867 2868 -1.0
2868 2868 4.0
2868 2869 -1.0
2869 2869 4.0
2869 2870 -1.0
2870 2870 4.0
2870 2871 -1.0
2871 2871 4.0
2871 2872 -1.0
2872 2872 4.0
2872 2873 -1.0
2873 2873 4.0
2873 2874 -1.0
2874 2874 4.0
2874 2875 -1.0
2875 2875 4.0
2875 2876 -1.0
2876 2876 4.0
2876 2877 -1.0
2877 2877 4.0
2877 2878 -1.0
2878 2878 4.0
2878 2879 -1.0
2879 2879 4.0
2879 2880 -1.0
2880 2880 4.0
2880 2881 -1.0
2881 2881 4.0
2881 2882 -1.0
2882 2882 4.0
2882 2883 -1.0
2883 2883 4.0
2883 2884 -1.0
2884 2884 4.0
2884 2885 -1.0
2885 2885 4.0
2885 2886 -1.0
2886 2886 4.0
2886 2887 -1.0
2887 2887 4.0
2887 2888 -1.0
2888 2888 4.0
2888 2889 -1.0
2889 2889 4.0
2889 2890 -1.0
2890 2890 4.0
2890 2891 -1.0
2891 2891 4.0
2891 2892 -1.0
2892 2892 4.0
2892 2893 -1.0
2893 2893 4.0
2893 2894 -1.0
2894 2894 4.0
2894 2895 -1.0
2895 2895 4.0
2895 2896 -1.0
2896 2896 4.0
2896 2897 -1.0
2897 2897 4.0
2897 2898 -1.0
2898 2898 4.0
2898 2899 -1.0
2899 2899 4.0
2899 2900 -1.0
2900 2900 4.0
2900 2901 -1.0
2901 2901 4.0
2901 2902 -1.0
2902 2902 4.0
2902 2903 -1.0
2903 2903 4.0
2903 2904 -1.0
2904 2904 4.0
2904 2905 -1.0
2905 2905 4.0
2905 2906 -1.0
2906 2906 4.0
2906 2907 -1.0
2907 2907 4.0
2907 2908 -1.0
2908 2908 4.0
2908 2909 -1.0
2909 2909 4.0
2909 2910 -1.0
2910 2910 4.0
2910 2911 -1.0
2911 2911 4.0
2911 2912 -1.0
2912 2912 4.0
2912 2913 -1.0
2913 2913 4.0
2913 2914 -1.0
2914 2914 4.0
2914 2915 -1.0
2915 2915 4.0
2915 2916 -1.0
2916 2916 4.0
