%%MatrixMarket matrix coordinate real symmetric
% pde900
% Bai group: 2D Laplacian on 30x30 grid. Kind: 2D/3D Problem. SPD.
900 900 2640
1 1 4.0
1 2 -1.0
1 31 -1.0
2 2 4.0
2 3 -1.0
2 32 -1.0
3 3 4.0
3 4 -1.0
3 33 -1.0
4 4 4.0
4 5 -1.0
4 34 -1.0
5 5 4.0
5 6 -1.0
5 35 -1.0
6 6 4.0
6 7 -1.0
6 36 -1.0
7 7 4.0
7 8 -1.0
7 37 -1.0
8 8 4.0
8 9 -1.0
8 38 -1.0
9 9 4.0
9 10 -1.0
9 39 -1.0
10 10 4.0
10 11 -1.0
10 40 -1.0
11 11 4.0
11 12 -1.0
11 41 -1.0
12 12 4.0
12 13 -1.0
12 42 -1.0
13 13 4.0
13 14 -1.0
13 43 -1.0
14 14 4.0
14 15 -1.0
14 44 -1.0
15 15 4.0
15 16 -1.0
15 45 -1.0
16 16 4.0
16 17 -1.0
16 46 -1.0
17 17 4.0
17 18 -1.0
17 47 -1.0
18 18 4.0
18 19 -1.0
18 48 -1.0
19 19 4.0
19 20 -1.0
19 49 -1.0
20 20 4.0
20 21 -1.0
20 50 -1.0
21 21 4.0
21 22 -1.0
21 51 -1.0
22 22 4.0
22 23 -1.0
22 52 -1.0
23 23 4.0
23 24 -1.0
23 53 -1.0
24 24 4.0
24 25 -1.0
24 54 -1.0
25 25 4.0
25 26 -1.0
25 55 -1.0
26 26 4.0
26 27 -1.0
26 56 -1.0
27 27 4.0
27 28 -1.0
27 57 -1.0
28 28 4.0
28 29 -1.0
28 58 -1.0
29 29 4.0
29 30 -1.0
29 59 -1.0
30 30 4.0
30 60 -1.0
31 31 4.0
31 32 -1.0
31 61 -1.0
32 32 4.0
32 33 -1.0
32 62 -1.0
33 33 4.0
33 34 -1.0
33 63 -1.0
34 34 4.0
34 35 -1.0
34 64 -1.0
35 35 4.0
35 36 -1.0
35 65 -1.0
36 36 4.0
36 37 -1.0
36 66 -1.0
37 37 4.0
37 38 -1.0
37 67 -1.0
38 38 4.0
38 39 -1.0
38 68 -1.0
39 39 4.0
39 40 -1.0
39 69 -1.0
40 40 4.0
40 41 -1.0
40 70 -1.0
41 41 4.0
41 42 -1.0
41 71 -1.0
42 42 4.0
42 43 -1.0
42 72 -1.0
43 43 4.0
43 44 -1.0
43 73 -1.0
44 44 4.0
44 45 -1.0
44 74 -1.0
45 45 4.0
45 46 -1.0
45 75 -1.0
46 46 4.0
46 47 -1.0
46 76 -1.0
47 47 4.0
47 48 -1.0
47 77 -1.0
48 48 4.0
48 49 -1.0
48 78 -1.0
49 49 4.0
49 50 -1.0
49 79 -1.0
50 50 4.0
50 51 -1.0
50 80 -1.0
51 51 4.0
51 52 -1.0
51 81 -1.0
52 52 4.0
52 53 -1.0
52 82 -1.0
53 53 4.0
53 54 -1.0
53 83 -1.0
54 54 4.0
54 55 -1.0
54 84 -1.0
55 55 4.0
55 56 -1.0
55 85 -1.0
56 56 4.0
56 57 -1.0
56 86 -1.0
57 57 4.0
57 58 -1.0
57 87 -1.0
58 58 4.0
58 59 -1.0
58 88 -1.0
59 59 4.0
59 60 -1.0
59 89 -1.0
60 60 4.0
60 90 -1.0
61 61 4.0
61 62 -1.0
61 91 -1.0
62 62 4.0
62 63 -1.0
62 92 -1.0
63 63 4.0
63 64 -1.0
63 93 -1.0
64 64 4.0
64 65 -1.0
64 94 -1.0
65 65 4.0
65 66 -1.0
65 95 -1.0
66 66 4.0
66 67 -1.0
66 96 -1.0
67 67 4.0
67 68 -1.0
67 97 -1.0
68 68 4.0
68 69 -1.0
68 98 -1.0
69 69 4.0
69 70 -1.0
69 99 -1.0
70 70 4.0
70 71 -1.0
70 100 -1.0
71 71 4.0
71 72 -1.0
71 101 -1.0
72 72 4.0
72 73 -1.0
72 102 -1.0
73 73 4.0
73 74 -1.0
73 103 -1.0
74 74 4.0
74 75 -1.0
74 104 -1.0
75 75 4.0
75 76 -1.0
75 105 -1.0
76 76 4.0
76 77 -1.0
76 106 -1.0
77 77 4.0
77 78 -1.0
77 107 -1.0
78 78 4.0
78 79 -1.0
78 108 -1.0
79 79 4.0
79 80 -1.0
79 109 -1.0
80 80 4.0
80 81 -1.0
80 110 -1.0
81 81 4.0
81 82 -1.0
81 111 -1.0
82 82 4.0
82 83 -1.0
82 112 -1.0
83 83 4.0
83 84 -1.0
83 113 -1.0
84 84 4.0
84 85 -1.0
84 114 -1.0
85 85 4.0
85 86 -1.0
85 115 -1.0
86 86 4.0
86 87 -1.0
86 116 -1.0
87 87 4.0
87 88 -1.0
87 117 -1.0
88 88 4.0
88 89 -1.0
88 118 -1.0
89 89 4.0
89 90 -1.0
89 119 -1.0
90 90 4.0
90 120 -1.0
91 91 4.0
91 92 -1.0
91 121 -1.0
92 92 4.0
92 93 -1.0
92 122 -1.0
93 93 4.0
93 94 -1.0
93 123 -1.0
94 94 4.0
94 95 -1.0
94 124 -1.0
95 95 4.0
95 96 -1.0
95 125 -1.0
96 96 4.0
96 97 -1.0
96 126 -1.0
97 97 4.0
97 98 -1.0
97 127 -1.0
98 98 4.0
98 99 -1.0
98 128 -1.0
99 99 4.0
99 100 -1.0
99 129 -1.0
100 100 4.0
100 101 -1.0
100 130 -1.0
101 101 4.0
101 102 -1.0
101 131 -1.0
102 102 4.0
102 103 -1.0
102 132 -1.0
103 103 4.0
103 104 -1.0
103 133 -1.0
104 104 4.0
104 105 -1.0
104 134 -1.0
105 105 4.0
105 106 -1.0
105 135 -1.0
106 106 4.0
106 107 -1.0
106 136 -1.0
107 107 4.0
107 108 -1.0
107 137 -1.0
108 108 4.0
108 109 -1.0
108 138 -1.0
109 109 4.0
109 110 -1.0
109 139 -1.0
110 110 4.0
110 111 -1.0
110 140 -1.0
111 111 4.0
111 112 -1.0
111 141 -1.0
112 112 4.0
112 113 -1.0
112 142 -1.0
113 113 4.0
113 114 -1.0
113 143 -1.0
114 114 4.0
114 115 -1.0
114 144 -1.0
115 115 4.0
115 116 -1.0
115 145 -1.0
116 116 4.0
116 117 -1.0
116 146 -1.0
117 117 4.0
117 118 -1.0
117 147 -1.0
118 118 4.0
118 119 -1.0
118 148 -1.0
119 119 4.0
119 120 -1.0
119 149 -1.0
120 120 4.0
120 150 -1.0
121 121 4.0
121 122 -1.0
121 151 -1.0
122 122 4.0
122 123 -1.0
122 152 -1.0
123 123 4.0
123 124 -1.0
123 153 -1.0
124 124 4.0
124 125 -1.0
124 154 -1.0
125 125 4.0
125 126 -1.0
125 155 -1.0
126 126 4.0
126 127 -1.0
126 156 -1.0
127 127 4.0
127 128 -1.0
127 157 -1.0
128 128 4.0
128 129 -1.0
128 158 -1.0
129 129 4.0
129 130 -1.0
129 159 -1.0
130 130 4.0
130 131 -1.0
130 160 -1.0
131 131 4.0
131 132 -1.0
131 161 -1.0
132 132 4.0
132 133 -1.0
132 162 -1.0
133 133 4.0
133 134 -1.0
133 163 -1.0
134 134 4.0
134 135 -1.0
134 164 -1.0
135 135 4.0
135 136 -1.0
135 165 -1.0
136 136 4.0
136 137 -1.0
136 166 -1.0
137 137 4.0
137 138 -1.0
137 167 -1.0
138 138 4.0
138 139 -1.0
138 168 -1.0
139 139 4.0
139 140 -1.0
139 169 -1.0
140 140 4.0
140 141 -1.0
140 170 -1.0
141 141 4.0
141 142 -1.0
141 171 -1.0
142 142 4.0
142 143 -1.0
142 172 -1.0
143 143 4.0
143 144 -1.0
143 173 -1.0
144 144 4.0
144 145 -1.0
144 174 -1.0
145 145 4.0
145 146 -1.0
145 175 -1.0
146 146 4.0
146 147 -1.0
146 176 -1.0
147 147 4.0
147 148 -1.0
147 177 -1.0
148 148 4.0
148 149 -1.0
148 178 -1.0
149 149 4.0
149 150 -1.0
149 179 -1.0
150 150 4.0
150 180 -1.0
151 151 4.0
151 152 -1.0
151 181 -1.0
152 152 4.0
152 153 -1.0
152 182 -1.0
153 153 4.0
153 154 -1.0
153 183 -1.0
154 154 4.0
154 155 -1.0
154 184 -1.0
155 155 4.0
155 156 -1.0
155 185 -1.0
156 156 4.0
156 157 -1.0
156 186 -1.0
157 157 4.0
157 158 -1.0
157 187 -1.0
158 158 4.0
158 159 -1.0
158 188 -1.0
159 159 4.0
159 160 -1.0
159 189 -1.0
160 160 4.0
160 161 -1.0
160 190 -1.0
161 161 4.0
161 162 -1.0
161 191 -1.0
162 162 4.0
162 163 -1.0
162 192 -1.0
163 163 4.0
163 164 -1.0
163 193 -1.0
164 164 4.0
164 165 -1.0
164 194 -1.0
165 165 4.0
165 166 -1.0
165 195 -1.0
166 166 4.0
166 167 -1.0
166 196 -1.0
167 167 4.0
167 168 -1.0
167 197 -1.0
168 168 4.0
168 169 -1.0
168 198 -1.0
169 169 4.0
169 170 -1.0
169 199 -1.0
170 170 4.0
170 171 -1.0
170 200 -1.0
171 171 4.0
171 172 -1.0
171 201 -1.0
172 172 4.0
172 173 -1.0
172 202 -1.0
173 173 4.0
173 174 -1.0
173 203 -1.0
174 174 4.0
174 175 -1.0
174 204 -1.0
175 175 4.0
175 176 -1.0
175 205 -1.0
176 176 4.0
176 177 -1.0
176 206 -1.0
177 177 4.0
177 178 -1.0
177 207 -1.0
178 178 4.0
178 179 -1.0
178 208 -1.0
179 179 4.0
179 180 -1.0
179 209 -1.0
180 180 4.0
180 210 -1.0
181 181 4.0
181 182 -1.0
181 211 -1.0
182 182 4.0
182 183 -1.0
182 212 -1.0
183 183 4.0
183 184 -1.0
183 213 -1.0
184 184 4.0
184 185 -1.0
184 214 -1.0
185 185 4.0
185 186 -1.0
185 215 -1.0
186 186 4.0
186 187 -1.0
186 216 -1.0
187 187 4.0
187 188 -1.0
187 217 -1.0
188 188 4.0
188 189 -1.0
188 218 -1.0
189 189 4.0
189 190 -1.0
189 219 -1.0
190 190 4.0
190 191 -1.0
190 220 -1.0
191 191 4.0
191 192 -1.0
191 221 -1.0
192 192 4.0
192 193 -1.0
192 222 -1.0
193 193 4.0
193 194 -1.0
193 223 -1.0
194 194 4.0
194 195 -1.0
194 224 -1.0
195 195 4.0
195 196 -1.0
195 225 -1.0
196 196 4.0
196 197 -1.0
196 226 -1.0
197 197 4.0
197 198 -1.0
197 227 -1.0
198 198 4.0
198 199 -1.0
198 228 -1.0
199 199 4.0
199 200 -1.0
199 229 -1.0
200 200 4.0
200 201 -1.0
200 230 -1.0
201 201 4.0
201 202 -1.0
201 231 -1.0
202 202 4.0
202 203 -1.0
202 232 -1.0
203 203 4.0
203 204 -1.0
203 233 -1.0
204 204 4.0
204 205 -1.0
204 234 -1.0
205 205 4.0
205 206 -1.0
205 235 -1.0
206 206 4.0
206 207 -1.0
206 236 -1.0
207 207 4.0
207 208 -1.0
207 237 -1.0
208 208 4.0
208 209 -1.0
208 238 -1.0
209 209 4.0
209 210 -1.0
209 239 -1.0
210 210 4.0
210 240 -1.0
211 211 4.0
211 212 -1.0
211 241 -1.0
212 212 4.0
212 213 -1.0
212 242 -1.0
213 213 4.0
213 214 -1.0
213 243 -1.0
214 214 4.0
214 215 -1.0
214 244 -1.0
215 215 4.0
215 216 -1.0
215 245 -1.0
216 216 4.0
216 217 -1.0
216 246 -1.0
217 217 4.0
217 218 -1.0
217 247 -1.0
218 218 4.0
218 219 -1.0
218 248 -1.0
219 219 4.0
219 220 -1.0
219 249 -1.0
220 220 4.0
220 221 -1.0
220 250 -1.0
221 221 4.0
221 222 -1.0
221 251 -1.0
222 222 4.0
222 223 -1.0
222 252 -1.0
223 223 4.0
223 224 -1.0
223 253 -1.0
224 224 4.0
224 225 -1.0
224 254 -1.0
225 225 4.0
225 226 -1.0
225 255 -1.0
226 226 4.0
226 227 -1.0
226 256 -1.0
227 227 4.0
227 228 -1.0
227 257 -1.0
228 228 4.0
228 229 -1.0
228 258 -1.0
229 229 4.0
229 230 -1.0
229 259 -1.0
230 230 4.0
230 231 -1.0
230 260 -1.0
231 231 4.0
231 232 -1.0
231 261 -1.0
232 232 4.0
232 233 -1.0
232 262 -1.0
233 233 4.0
233 234 -1.0
233 263 -1.0
234 234 4.0
234 235 -1.0
234 264 -1.0
235 235 4.0
235 236 -1.0
235 265 -1.0
236 236 4.0
236 237 -1.0
236 266 -1.0
237 237 4.0
237 238 -1.0
237 267 -1.0
238 238 4.0
238 239 -1.0
238 268 -1.0
239 239 4.0
239 240 -1.0
239 269 -1.0
240 240 4.0
240 270 -1.0
241 241 4.0
241 242 -1.0
241 271 -1.0
242 242 4.0
242 243 -1.0
242 272 -1.0
243 243 4.0
243 244 -1.0
243 273 -1.0
244 244 4.0
244 245 -1.0
244 274 -1.0
245 245 4.0
245 246 -1.0
245 275 -1.0
246 246 4.0
246 247 -1.0
246 276 -1.0
247 247 4.0
247 248 -1.0
247 277 -1.0
248 248 4.0
248 249 -1.0
248 278 -1.0
249 249 4.0
249 250 -1.0
249 279 -1.0
250 250 4.0
250 251 -1.0
250 280 -1.0
251 251 4.0
251 252 -1.0
251 281 -1.0
252 252 4.0
252 253 -1.0
252 282 -1.0
253 253 4.0
253 254 -1.0
253 283 -1.0
254 254 4.0
254 255 -1.0
254 284 -1.0
255 255 4.0
255 256 -1.0
255 285 -1.0
256 256 4.0
256 257 -1.0
256 286 -1.0
257 257 4.0
257 258 -1.0
257 287 -1.0
258 258 4.0
258 259 -1.0
258 288 -1.0
259 259 4.0
259 260 -1.0
259 289 -1.0
260 260 4.0
260 261 -1.0
260 290 -1.0
261 261 4.0
261 262 -1.0
261 291 -1.0
262 262 4.0
262 263 -1.0
262 292 -1.0
263 263 4.0
263 264 -1.0
263 293 -1.0
264 264 4.0
264 265 -1.0
264 294 -1.0
265 265 4.0
265 266 -1.0
265 295 -1.0
266 266 4.0
266 267 -1.0
266 296 -1.0
267 267 4.0
267 268 -1.0
267 297 -1.0
268 268 4.0
268 269 -1.0
268 298 -1.0
269 269 4.0
269 270 -1.0
269 299 -1.0
270 270 4.0
270 300 -1.0
271 271 4.0
271 272 -1.0
271 301 -1.0
272 272 4.0
272 273 -1.0
272 302 -1.0
273 273 4.0
273 274 -1.0
273 303 -1.0
274 274 4.0
274 275 -1.0
274 304 -1.0
275 275 4.0
275 276 -1.0
275 305 -1.0
276 276 4.0
276 277 -1.0
276 306 -1.0
277 277 4.0
277 278 -1.0
277 307 -1.0
278 278 4.0
278 279 -1.0
278 308 -1.0
279 279 4.0
279 280 -1.0
279 309 -1.0
280 280 4.0
280 281 -1.0
280 310 -1.0
281 281 4.0
281 282 -1.0
281 311 -1.0
282 282 4.0
282 283 -1.0
282 312 -1.0
283 283 4.0
283 284 -1.0
283 313 -1.0
284 284 4.0
284 285 -1.0
284 314 -1.0
285 285 4.0
285 286 -1.0
285 315 -1.0
286 286 4.0
286 287 -1.0
286 316 -1.0
287 287 4.0
287 288 -1.0
287 317 -1.0
288 288 4.0
288 289 -1.0
288 318 -1.0
289 289 4.0
289 290 -1.0
289 319 -1.0
290 290 4.0
290 291 -1.0
290 320 -1.0
291 291 4.0
291 292 -1.0
291 321 -1.0
292 292 4.0
292 293 -1.0
292 322 -1.0
293 293 4.0
293 294 -1.0
293 323 -1.0
294 294 4.0
294 295 -1.0
294 324 -1.0
295 295 4.0
295 296 -1.0
295 325 -1.0
296 296 4.0
296 297 -1.0
296 326 -1.0
297 297 4.0
297 298 -1.0
297 327 -1.0
298 298 4.0
298 299 -1.0
298 328 -1.0
299 299 4.0
299 300 -1.0
299 329 -1.0
300 300 4.0
300 330 -1.0
301 301 4.0
301 302 -1.0
301 331 -1.0
302 302 4.0
302 303 -1.0
302 332 -1.0
303 303 4.0
303 304 -1.0
303 333 -1.0
304 304 4.0
304 305 -1.0
304 334 -1.0
305 305 4.0
305 306 -1.0
305 335 -1.0
306 306 4.0
306 307 -1.0
306 336 -1.0
307 307 4.0
307 308 -1.0
307 337 -1.0
308 308 4.0
308 309 -1.0
308 338 -1.0
309 309 4.0
309 310 -1.0
309 339 -1.0
310 310 4.0
310 311 -1.0
310 340 -1.0
311 311 4.0
311 312 -1.0
311 341 -1.0
312 312 4.0
312 313 -1.0
312 342 -1.0
313 313 4.0
313 314 -1.0
313 343 -1.0
314 314 4.0
314 315 -1.0
314 344 -1.0
315 315 4.0
315 316 -1.0
315 345 -1.0
316 316 4.0
316 317 -1.0
316 346 -1.0
317 317 4.0
317 318 -1.0
317 347 -1.0
318 318 4.0
318 319 -1.0
318 348 -1.0
319 319 4.0
319 320 -1.0
319 349 -1.0
320 320 4.0
320 321 -1.0
320 350 -1.0
321 321 4.0
321 322 -1.0
321 351 -1.0
322 322 4.0
322 323 -1.0
322 352 -1.0
323 323 4.0
323 324 -1.0
323 353 -1.0
324 324 4.0
324 325 -1.0
324 354 -1.0
325 325 4.0
325 326 -1.0
325 355 -1.0
326 326 4.0
326 327 -1.0
326 356 -1.0
327 327 4.0
327 328 -1.0
327 357 -1.0
328 328 4.0
328 329 -1.0
328 358 -1.0
329 329 4.0
329 330 -1.0
329 359 -1.0
330 330 4.0
330 360 -1.0
331 331 4.0
331 332 -1.0
331 361 -1.0
332 332 4.0
332 333 -1.0
332 362 -1.0
333 333 4.0
333 334 -1.0
333 363 -1.0
334 334 4.0
334 335 -1.0
334 364 -1.0
335 335 4.0
335 336 -1.0
335 365 -1.0
336 336 4.0
336 337 -1.0
336 366 -1.0
337 337 4.0
337 338 -1.0
337 367 -1.0
338 338 4.0
338 339 -1.0
338 368 -1.0
339 339 4.0
339 340 -1.0
339 369 -1.0
340 340 4.0
340 341 -1.0
340 370 -1.0
341 341 4.0
341 342 -1.0
341 371 -1.0
342 342 4.0
342 343 -1.0
342 372 -1.0
343 343 4.0
343 344 -1.0
343 373 -1.0
344 344 4.0
344 345 -1.0
344 374 -1.0
345 345 4.0
345 346 -1.0
345 375 -1.0
346 346 4.0
346 347 -1.0
346 376 -1.0
347 347 4.0
347 348 -1.0
347 377 -1.0
348 348 4.0
348 349 -1.0
348 378 -1.0
349 349 4.0
349 350 -1.0
349 379 -1.0
350 350 4.0
350 351 -1.0
350 380 -1.0
351 351 4.0
351 352 -1.0
351 381 -1.0
352 352 4.0
352 353 -1.0
352 382 -1.0
353 353 4.0
353 354 -1.0
353 383 -1.0
354 354 4.0
354 355 -1.0
354 384 -1.0
355 355 4.0
355 356 -1.0
355 385 -1.0
356 356 4.0
356 357 -1.0
356 386 -1.0
357 357 4.0
357 358 -1.0
357 387 -1.0
358 358 4.0
358 359 -1.0
358 388 -1.0
359 359 4.0
359 360 -1.0
359 389 -1.0
360 360 4.0
360 390 -1.0
361 361 4.0
361 362 -1.0
361 391 -1.0
362 362 4.0
362 363 -1.0
362 392 -1.0
363 363 4.0
363 364 -1.0
363 393 -1.0
364 364 4.0
364 365 -1.0
364 394 -1.0
365 365 4.0
365 366 -1.0
365 395 -1.0
366 366 4.0
366 367 -1.0
366 396 -1.0
367 367 4.0
367 368 -1.0
367 397 -1.0
368 368 4.0
368 369 -1.0
368 398 -1.0
369 369 4.0
369 370 -1.0
369 399 -1.0
370 370 4.0
370 371 -1.0
370 400 -1.0
371 371 4.0
371 372 -1.0
371 401 -1.0
372 372 4.0
372 373 -1.0
372 402 -1.0
373 373 4.0
373 374 -1.0
373 403 -1.0
374 374 4.0
374 375 -1.0
374 404 -1.0
375 375 4.0
375 376 -1.0
375 405 -1.0
376 376 4.0
376 377 -1.0
376 406 -1.0
377 377 4.0
377 378 -1.0
377 407 -1.0
378 378 4.0
378 379 -1.0
378 408 -1.0
379 379 4.0
379 380 -1.0
379 409 -1.0
380 380 4.0
380 381 -1.0
380 410 -1.0
381 381 4.0
381 382 -1.0
381 411 -1.0
382 382 4.0
382 383 -1.0
382 412 -1.0
383 383 4.0
383 384 -1.0
383 413 -1.0
384 384 4.0
384 385 -1.0
384 414 -1.0
385 385 4.0
385 386 -1.0
385 415 -1.0
386 386 4.0
386 387 -1.0
386 416 -1.0
387 387 4.0
387 388 -1.0
387 417 -1.0
388 388 4.0
388 389 -1.0
388 418 -1.0
389 389 4.0
389 390 -1.0
389 419 -1.0
390 390 4.0
390 420 -1.0
391 391 4.0
391 392 -1.0
391 421 -1.0
392 392 4.0
392 393 -1.0
392 422 -1.0
393 393 4.0
393 394 -1.0
393 423 -1.0
394 394 4.0
394 395 -1.0
394 424 -1.0
395 395 4.0
395 396 -1.0
395 425 -1.0
396 396 4.0
396 397 -1.0
396 426 -1.0
397 397 4.0
397 398 -1.0
397 427 -1.0
398 398 4.0
398 399 -1.0
398 428 -1.0
399 399 4.0
399 400 -1.0
399 429 -1.0
400 400 4.0
400 401 -1.0
400 430 -1.0
401 401 4.0
401 402 -1.0
401 431 -1.0
402 402 4.0
402 403 -1.0
402 432 -1.0
403 403 4.0
403 404 -1.0
403 433 -1.0
404 404 4.0
404 405 -1.0
404 434 -1.0
405 405 4.0
405 406 -1.0
405 435 -1.0
406 406 4.0
406 407 -1.0
406 436 -1.0
407 407 4.0
407 408 -1.0
407 437 -1.0
408 408 4.0
408 409 -1.0
408 438 -1.0
409 409 4.0
409 410 -1.0
409 439 -1.0
410 410 4.0
410 411 -1.0
410 440 -1.0
411 411 4.0
411 412 -1.0
411 441 -1.0
412 412 4.0
412 413 -1.0
412 442 -1.0
413 413 4.0
413 414 -1.0
413 443 -1.0
414 414 4.0
414 415 -1.0
414 444 -1.0
415 415 4.0
415 416 -1.0
415 445 -1.0
416 416 4.0
416 417 -1.0
416 446 -1.0
417 417 4.0
417 418 -1.0
417 447 -1.0
418 418 4.0
418 419 -1.0
418 448 -1.0
419 419 4.0
419 420 -1.0
419 449 -1.0
420 420 4.0
420 450 -1.0
421 421 4.0
421 422 -1.0
421 451 -1.0
422 422 4.0
422 423 -1.0
422 452 -1.0
423 423 4.0
423 424 -1.0
423 453 -1.0
424 424 4.0
424 425 -1.0
424 454 -1.0
425 425 4.0
425 426 -1.0
425 455 -1.0
426 426 4.0
426 427 -1.0
426 456 -1.0
427 427 4.0
427 428 -1.0
427 457 -1.0
428 428 4.0
428 429 -1.0
428 458 -1.0
429 429 4.0
429 430 -1.0
429 459 -1.0
430 430 4.0
430 431 -1.0
430 460 -1.0
431 431 4.0
431 432 -1.0
431 461 -1.0
432 432 4.0
432 433 -1.0
432 462 -1.0
433 433 4.0
433 434 -1.0
433 463 -1.0
434 434 4.0
434 435 -1.0
434 464 -1.0
435 435 4.0
435 436 -1.0
435 465 -1.0
436 436 4.0
436 437 -1.0
436 466 -1.0
437 437 4.0
437 438 -1.0
437 467 -1.0
438 438 4.0
438 439 -1.0
438 468 -1.0
439 439 4.0
439 440 -1.0
439 469 -1.0
440 440 4.0
440 441 -1.0
440 470 -1.0
441 441 4.0
441 442 -1.0
441 471 -1.0
442 442 4.0
442 443 -1.0
442 472 -1.0
443 443 4.0
443 444 -1.0
443 473 -1.0
444 444 4.0
444 445 -1.0
444 474 -1.0
445 445 4.0
445 446 -1.0
445 475 -1.0
446 446 4.0
446 447 -1.0
446 476 -1.0
447 447 4.0
447 448 -1.0
447 477 -1.0
448 448 4.0
448 449 -1.0
448 478 -1.0
449 449 4.0
449 450 -1.0
449 479 -1.0
450 450 4.0
450 480 -1.0
451 451 4.0
451 452 -1.0
451 481 -1.0
452 452 4.0
452 453 -1.0
452 482 -1.0
453 453 4.0
453 454 -1.0
453 483 -1.0
454 454 4.0
454 455 -1.0
454 484 -1.0
455 455 4.0
455 456 -1.0
455 485 -1.0
456 456 4.0
456 457 -1.0
456 486 -1.0
457 457 4.0
457 458 -1.0
457 487 -1.0
458 458 4.0
458 459 -1.0
458 488 -1.0
459 459 4.0
459 460 -1.0
459 489 -1.0
460 460 4.0
460 461 -1.0
460 490 -1.0
461 461 4.0
461 462 -1.0
461 491 -1.0
462 462 4.0
462 463 -1.0
462 492 -1.0
463 463 4.0
463 464 -1.0
463 493 -1.0
464 464 4.0
464 465 -1.0
464 494 -1.0
465 465 4.0
465 466 -1.0
465 495 -1.0
466 466 4.0
466 467 -1.0
466 496 -1.0
467 467 4.0
467 468 -1.0
467 497 -1.0
468 468 4.0
468 469 -1.0
468 498 -1.0
469 469 4.0
469 470 -1.0
469 499 -1.0
470 470 4.0
470 471 -1.0
470 500 -1.0
471 471 4.0
471 472 -1.0
471 501 -1.0
472 472 4.0
472 473 -1.0
472 502 -1.0
473 473 4.0
473 474 -1.0
473 503 -1.0
474 474 4.0
474 475 -1.0
474 504 -1.0
475 475 4.0
475 476 -1.0
475 505 -1.0
476 476 4.0
476 477 -1.0
476 506 -1.0
477 477 4.0
477 478 -1.0
477 507 -1.0
478 478 4.0
478 479 -1.0
478 508 -1.0
479 479 4.0
479 480 -1.0
479 509 -1.0
480 480 4.0
480 510 -1.0
481 481 4.0
481 482 -1.0
481 511 -1.0
482 482 4.0
482 483 -1.0
482 512 -1.0
483 483 4.0
483 484 -1.0
483 513 -1.0
484 484 4.0
484 485 -1.0
484 514 -1.0
485 485 4.0
485 486 -1.0
485 515 -1.0
486 486 4.0
486 487 -1.0
486 516 -1.0
487 487 4.0
487 488 -1.0
487 517 -1.0
488 488 4.0
488 489 -1.0
488 518 -1.0
489 489 4.0
489 490 -1.0
489 519 -1.0
490 490 4.0
490 491 -1.0
490 520 -1.0
491 491 4.0
491 492 -1.0
491 521 -1.0
492 492 4.0
492 493 -1.0
492 522 -1.0
493 493 4.0
493 494 -1.0
493 523 -1.0
494 494 4.0
494 495 -1.0
494 524 -1.0
495 495 4.0
495 496 -1.0
495 525 -1.0
496 496 4.0
496 497 -1.0
496 526 -1.0
497 497 4.0
497 498 -1.0
497 527 -1.0
498 498 4.0
498 499 -1.0
498 528 -1.0
499 499 4.0
499 500 -1.0
499 529 -1.0
500 500 4.0
500 501 -1.0
500 530 -1.0
501 501 4.0
501 502 -1.0
501 531 -1.0
502 502 4.0
502 503 -1.0
502 532 -1.0
503 503 4.0
503 504 -1.0
503 533 -1.0
504 504 4.0
504 505 -1.0
504 534 -1.0
505 505 4.0
505 506 -1.0
505 535 -1.0
506 506 4.0
506 507 -1.0
506 536 -1.0
507 507 4.0
507 508 -1.0
507 537 -1.0
508 508 4.0
508 509 -1.0
508 538 -1.0
509 509 4.0
509 510 -1.0
509 539 -1.0
510 510 4.0
510 540 -1.0
511 511 4.0
511 512 -1.0
511 541 -1.0
512 512 4.0
512 513 -1.0
512 542 -1.0
513 513 4.0
513 514 -1.0
513 543 -1.0
514 514 4.0
514 515 -1.0
514 544 -1.0
515 515 4.0
515 516 -1.0
515 545 -1.0
516 516 4.0
516 517 -1.0
516 546 -1.0
517 517 4.0
517 518 -1.0
517 547 -1.0
518 518 4.0
518 519 -1.0
518 548 -1.0
519 519 4.0
519 520 -1.0
519 549 -1.0
520 520 4.0
520 521 -1.0
520 550 -1.0
521 521 4.0
521 522 -1.0
521 551 -1.0
522 522 4.0
522 523 -1.0
522 552 -1.0
523 523 4.0
523 524 -1.0
523 553 -1.0
524 524 4.0
524 525 -1.0
524 554 -1.0
525 525 4.0
525 526 -1.0
525 555 -1.0
526 526 4.0
526 527 -1.0
526 556 -1.0
527 527 4.0
527 528 -1.0
527 557 -1.0
528 528 4.0
528 529 -1.0
528 558 -1.0
529 529 4.0
529 530 -1.0
529 559 -1.0
530 530 4.0
530 531 -1.0
530 560 -1.0
531 531 4.0
531 532 -1.0
531 561 -1.0
532 532 4.0
532 533 -1.0
532 562 -1.0
533 533 4.0
533 534 -1.0
533 563 -1.0
534 534 4.0
534 535 -1.0
534 564 -1.0
535 535 4.0
535 536 -1.0
535 565 -1.0
536 536 4.0
536 537 -1.0
536 566 -1.0
537 537 4.0
537 538 -1.0
537 567 -1.0
538 538 4.0
538 539 -1.0
538 568 -1.0
539 539 4.0
539 540 -1.0
539 569 -1.0
540 540 4.0
540 570 -1.0
541 541 4.0
541 542 -1.0
541 571 -1.0
542 542 4.0
542 543 -1.0
542 572 -1.0
543 543 4.0
543 544 -1.0
543 573 -1.0
544 544 4.0
544 545 -1.0
544 574 -1.0
545 545 4.0
545 546 -1.0
545 575 -1.0
546 546 4.0
546 547 -1.0
546 576 -1.0
547 547 4.0
547 548 -1.0
547 577 -1.0
548 548 4.0
548 549 -1.0
548 578 -1.0
549 549 4.0
549 550 -1.0
549 579 -1.0
550 550 4.0
550 551 -1.0
550 580 -1.0
551 551 4.0
551 552 -1.0
551 581 -1.0
552 552 4.0
552 553 -1.0
552 582 -1.0
553 553 4.0
553 554 -1.0
553 583 -1.0
554 554 4.0
554 555 -1.0
554 584 -1.0
555 555 4.0
555 556 -1.0
555 585 -1.0
556 556 4.0
556 557 -1.0
556 586 -1.0
557 557 4.0
557 558 -1.0
557 587 -1.0
558 558 4.0
558 559 -1.0
558 588 -1.0
559 559 4.0
559 560 -1.0
559 589 -1.0
560 560 4.0
560 561 -1.0
560 590 -1.0
561 561 4.0
561 562 -1.0
561 591 -1.0
562 562 4.0
562 563 -1.0
562 592 -1.0
563 563 4.0
563 564 -1.0
563 593 -1.0
564 564 4.0
564 565 -1.0
564 594 -1.0
565 565 4.0
565 566 -1.0
565 595 -1.0
566 566 4.0
566 567 -1.0
566 596 -1.0
567 567 4.0
567 568 -1.0
567 597 -1.0
568 568 4.0
568 569 -1.0
568 598 -1.0
569 569 4.0
569 570 -1.0
569 599 -1.0
570 570 4.0
570 600 -1.0
571 571 4.0
571 572 -1.0
571 601 -1.0
572 572 4.0
572 573 -1.0
572 602 -1.0
573 573 4.0
573 574 -1.0
573 603 -1.0
574 574 4.0
574 575 -1.0
574 604 -1.0
575 575 4.0
575 576 -1.0
575 605 -1.0
576 576 4.0
576 577 -1.0
576 606 -1.0
577 577 4.0
577 578 -1.0
577 607 -1.0
578 578 4.0
578 579 -1.0
578 608 -1.0
579 579 4.0
579 580 -1.0
579 609 -1.0
580 580 4.0
580 581 -1.0
580 610 -1.0
581 581 4.0
581 582 -1.0
581 611 -1.0
582 582 4.0
582 583 -1.0
582 612 -1.0
583 583 4.0
583 584 -1.0
583 613 -1.0
584 584 4.0
584 585 -1.0
584 614 -1.0
585 585 4.0
585 586 -1.0
585 615 -1.0
586 586 4.0
586 587 -1.0
586 616 -1.0
587 587 4.0
587 588 -1.0
587 617 -1.0
588 588 4.0
588 589 -1.0
588 618 -1.0
589 589 4.0
589 590 -1.0
589 619 -1.0
590 590 4.0
590 591 -1.0
590 620 -1.0
591 591 4.0
591 592 -1.0
591 621 -1.0
592 592 4.0
592 593 -1.0
592 622 -1.0
593 593 4.0
593 594 -1.0
593 623 -1.0
594 594 4.0
594 595 -1.0
594 624 -1.0
595 595 4.0
595 596 -1.0
595 625 -1.0
596 596 4.0
596 597 -1.0
596 626 -1.0
597 597 4.0
597 598 -1.0
597 627 -1.0
598 598 4.0
598 599 -1.0
598 628 -1.0
599 599 4.0
599 600 -1.0
599 629 -1.0
600 600 4.0
600 630 -1.0
601 601 4.0
601 602 -1.0
601 631 -1.0
602 602 4.0
602 603 -1.0
602 632 -1.0
603 603 4.0
603 604 -1.0
603 633 -1.0
604 604 4.0
604 605 -1.0
604 634 -1.0
605 605 4.0
605 606 -1.0
605 635 -1.0
606 606 4.0
606 607 -1.0
606 636 -1.0
607 607 4.0
607 608 -1.0
607 637 -1.0
608 608 4.0
608 609 -1.0
608 638 -1.0
609 609 4.0
609 610 -1.0
609 639 -1.0
610 610 4.0
610 611 -1.0
610 640 -1.0
611 611 4.0
611 612 -1.0
611 641 -1.0
612 612 4.0
612 613 -1.0
612 642 -1.0
613 613 4.0
613 614 -1.0
613 643 -1.0
614 614 4.0
614 615 -1.0
614 644 -1.0
615 615 4.0
615 616 -1.0
615 645 -1.0
616 616 4.0
616 617 -1.0
616 646 -1.0
617 617 4.0
617 618 -1.0
617 647 -1.0
618 618 4.0
618 619 -1.0
618 648 -1.0
619 619 4.0
619 620 -1.0
619 649 -1.0
620 620 4.0
620 621 -1.0
620 650 -1.0
621 621 4.0
621 622 -1.0
621 651 -1.0
622 622 4.0
622 623 -1.0
622 652 -1.0
623 623 4.0
623 624 -1.0
623 653 -1.0
624 624 4.0
624 625 -1.0
624 654 -1.0
625 625 4.0
625 626 -1.0
625 655 -1.0
626 626 4.0
626 627 -1.0
626 656 -1.0
627 627 4.0
627 628 -1.0
627 657 -1.0
628 628 4.0
628 629 -1.0
628 658 -1.0
629 629 4.0
629 630 -1.0
629 659 -1.0
630 630 4.0
630 660 -1.0
631 631 4.0
631 632 -1.0
631 661 -1.0
632 632 4.0
632 633 -1.0
632 662 -1.0
633 633 4.0
633 634 -1.0
633 663 -1.0
634 634 4.0
634 635 -1.0
634 664 -1.0
635 635 4.0
635 636 -1.0
635 665 -1.0
636 636 4.0
636 637 -1.0
636 666 -1.0
637 637 4.0
637 638 -1.0
637 667 -1.0
638 638 4.0
638 639 -1.0
638 668 -1.0
639 639 4.0
639 640 -1.0
639 669 -1.0
640 640 4.0
640 641 -1.0
640 670 -1.0
641 641 4.0
641 642 -1.0
641 671 -1.0
642 642 4.0
642 643 -1.0
642 672 -1.0
643 643 4.0
643 644 -1.0
643 673 -1.0
644 644 4.0
644 645 -1.0
644 674 -1.0
645 645 4.0
645 646 -1.0
645 675 -1.0
646 646 4.0
646 647 -1.0
646 676 -1.0
647 647 4.0
647 648 -1.0
647 677 -1.0
648 648 4.0
648 649 -1.0
648 678 -1.0
649 649 4.0
649 650 -1.0
649 679 -1.0
650 650 4.0
650 651 -1.0
650 680 -1.0
651 651 4.0
651 652 -1.0
651 681 -1.0
652 652 4.0
652 653 -1.0
652 682 -1.0
653 653 4.0
653 654 -1.0
653 683 -1.0
654 654 4.0
654 655 -1.0
654 684 -1.0
655 655 4.0
655 656 -1.0
655 685 -1.0
656 656 4.0
656 657 -1.0
656 686 -1.0
657 657 4.0
657 658 -1.0
657 687 -1.0
658 658 4.0
658 659 -1.0
658 688 -1.0
659 659 4.0
659 660 -1.0
659 689 -1.0
660 660 4.0
660 690 -1.0
661 661 4.0
661 662 -1.0
661 691 -1.0
662 662 4.0
662 663 -1.0
662 692 -1.0
663 663 4.0
663 664 -1.0
663 693 -1.0
664 664 4.0
664 665 -1.0
664 694 -1.0
665 665 4.0
665 666 -1.0
665 695 -1.0
666 666 4.0
666 667 -1.0
666 696 -1.0
667 667 4.0
667 668 -1.0
667 697 -1.0
668 668 4.0
668 669 -1.0
668 698 -1.0
669 669 4.0
669 670 -1.0
669 699 -1.0
670 670 4.0
670 671 -1.0
670 700 -1.0
671 671 4.0
671 672 -1.0
671 701 -1.0
672 672 4.0
672 673 -1.0
672 702 -1.0
673 673 4.0
673 674 -1.0
673 703 -1.0
674 674 4.0
674 675 -1.0
674 704 -1.0
675 675 4.0
675 676 -1.0
675 705 -1.0
676 676 4.0
676 677 -1.0
676 706 -1.0
677 677 4.0
677 678 -1.0
677 707 -1.0
678 678 4.0
678 679 -1.0
678 708 -1.0
679 679 4.0
679 680 -1.0
679 709 -1.0
680 680 4.0
680 681 -1.0
680 710 -1.0
681 681 4.0
681 682 -1.0
681 711 -1.0
682 682 4.0
682 683 -1.0
682 712 -1.0
683 683 4.0
683 684 -1.0
683 713 -1.0
684 684 4.0
684 685 -1.0
684 714 -1.0
685 685 4.0
685 686 -1.0
685 715 -1.0
686 686 4.0
686 687 -1.0
686 716 -1.0
687 687 4.0
687 688 -1.0
687 717 -1.0
688 688 4.0
688 689 -1.0
688 718 -1.0
689 689 4.0
689 690 -1.0
689 719 -1.0
690 690 4.0
690 720 -1.0
691 691 4.0
691 692 -1.0
691 721 -1.0
692 692 4.0
692 693 -1.0
692 722 -1.0
693 693 4.0
693 694 -1.0
693 723 -1.0
694 694 4.0
694 695 -1.0
694 724 -1.0
695 695 4.0
695 696 -1.0
695 725 -1.0
696 696 4.0
696 697 -1.0
696 726 -1.0
697 697 4.0
697 698 -1.0
697 727 -1.0
698 698 4.0
698 699 -1.0
698 728 -1.0
699 699 4.0
699 700 -1.0
699 729 -1.0
700 700 4.0
700 701 -1.0
700 730 -1.0
701 701 4.0
701 702 -1.0
701 731 -1.0
702 702 4.0
702 703 -1.0
702 732 -1.0
703 703 4.0
703 704 -1.0
703 733 -1.0
704 704 4.0
704 705 -1.0
704 734 -1.0
705 705 4.0
705 706 -1.0
705 735 -1.0
706 706 4.0
706 707 -1.0
706 736 -1.0
707 707 4.0
707 708 -1.0
707 737 -1.0
708 708 4.0
708 709 -1.0
708 738 -1.0
709 709 4.0
709 710 -1.0
709 739 -1.0
710 710 4.0
710 711 -1.0
710 740 -1.0
711 711 4.0
711 712 -1.0
711 741 -1.0
712 712 4.0
712 713 -1.0
712 742 -1.0
713 713 4.0
713 714 -1.0
713 743 -1.0
714 714 4.0
714 715 -1.0
714 744 -1.0
715 715 4.0
715 716 -1.0
715 745 -1.0
716 716 4.0
716 717 -1.0
716 746 -1.0
717 717 4.0
717 718 -1.0
717 747 -1.0
718 718 4.0
718 719 -1.0
718 748 -1.0
719 719 4.0
719 720 -1.0
719 749 -1.0
720 720 4.0
720 750 -1.0
721 721 4.0
721 722 -1.0
721 751 -1.0
722 722 4.0
722 723 -1.0
722 752 -1.0
723 723 4.0
723 724 -1.0
723 753 -1.0
724 724 4.0
724 725 -1.0
724 754 -1.0
725 725 4.0
725 726 -1.0
725 755 -1.0
726 726 4.0
726 727 -1.0
726 756 -1.0
727 727 4.0
727 728 -1.0
727 757 -1.0
728 728 4.0
728 729 -1.0
728 758 -1.0
729 729 4.0
729 730 -1.0
729 759 -1.0
730 730 4.0
730 731 -1.0
730 760 -1.0
731 731 4.0
731 732 -1.0
731 761 -1.0
732 732 4.0
732 733 -1.0
732 762 -1.0
733 733 4.0
733 734 -1.0
733 763 -1.0
734 734 4.0
734 735 -1.0
734 764 -1.0
735 735 4.0
735 736 -1.0
735 765 -1.0
736 736 4.0
736 737 -1.0
736 766 -1.0
737 737 4.0
737 738 -1.0
737 767 -1.0
738 738 4.0
738 739 -1.0
738 768 -1.0
739 739 4.0
739 740 -1.0
739 769 -1.0
740 740 4.0
740 741 -1.0
740 770 -1.0
741 741 4.0
741 742 -1.0
741 771 -1.0
742 742 4.0
742 743 -1.0
742 772 -1.0
743 743 4.0
743 744 -1.0
743 773 -1.0
744 744 4.0
744 745 -1.0
744 774 -1.0
745 745 4.0
745 746 -1.0
745 775 -1.0
746 746 4.0
746 747 -1.0
746 776 -1.0
747 747 4.0
747 748 -1.0
747 777 -1.0
748 748 4.0
748 749 -1.0
748 778 -1.0
749 749 4.0
749 750 -1.0
749 779 -1.0
750 750 4.0
750 780 -1.0
751 751 4.0
751 752 -1.0
751 781 -1.0
752 752 4.0
752 753 -1.0
752 782 -1.0
753 753 4.0
753 754 -1.0
753 783 -1.0
754 754 4.0
754 755 -1.0
754 784 -1.0
755 755 4.0
755 756 -1.0
755 785 -1.0
756 756 4.0
756 757 -1.0
756 786 -1.0
757 757 4.0
757 758 -1.0
757 787 -1.0
758 758 4.0
758 759 -1.0
758 788 -1.0
759 759 4.0
759 760 -1.0
759 789 -1.0
760 760 4.0
760 761 -1.0
760 790 -1.0
761 761 4.0
761 762 -1.0
761 791 -1.0
762 762 4.0
762 763 -1.0
762 792 -1.0
763 763 4.0
763 764 -1.0
763 793 -1.0
764 764 4.0
764 765 -1.0
764 794 -1.0
765 765 4.0
765 766 -1.0
765 795 -1.0
766 766 4.0
766 767 -1.0
766 796 -1.0
767 767 4.0
767 768 -1.0
767 797 -1.0
768 768 4.0
768 769 -1.0
768 798 -1.0
769 769 4.0
769 770 -1.0
769 799 -1.0
770 770 4.0
770 771 -1.0
770 800 -1.0
771 771 4.0
771 772 -1.0
771 801 -1.0
772 772 4.0
772 773 -1.0
772 802 -1.0
773 773 4.0
773 774 -1.0
773 803 -1.0
774 774 4.0
774 775 -1.0
774 804 -1.0
775 775 4.0
775 776 -1.0
775 805 -1.0
776 776 4.0
776 777 -1.0
776 806 -1.0
777 777 4.0
777 778 -1.0
777 807 -1.0
778 778 4.0
778 779 -1.0
778 808 -1.0
779 779 4.0
779 780 -1.0
779 809 -1.0
780 780 4.0
780 810 -1.0
781 781 4.0
781 782 -1.0
781 811 -1.0
782 782 4.0
782 783 -1.0
782 812 -1.0
783 783 4.0
783 784 -1.0
783 813 -1.0
784 784 4.0
784 785 -1.0
784 814 -1.0
785 785 4.0
785 786 -1.0
785 815 -1.0
786 786 4.0
786 787 -1.0
786 816 -1.0
787 787 4.0
787 788 -1.0
787 817 -1.0
788 788 4.0
788 789 -1.0
788 818 -1.0
789 789 4.0
789 790 -1.0
789 819 -1.0
790 790 4.0
790 791 -1.0
790 820 -1.0
791 791 4.0
791 792 -1.0
791 821 -1.0
792 792 4.0
792 793 -1.0
792 822 -1.0
793 793 4.0
793 794 -1.0
793 823 -1.0
794 794 4.0
794 795 -1.0
794 824 -1.0
795 795 4.0
795 796 -1.0
795 825 -1.0
796 796 4.0
796 797 -1.0
796 826 -1.0
797 797 4.0
797 798 -1.0
797 827 -1.0
798 798 4.0
798 799 -1.0
798 828 -1.0
799 799 4.0
799 800 -1.0
799 829 -1.0
800 800 4.0
800 801 -1.0
800 830 -1.0
801 801 4.0
801 802 -1.0
801 831 -1.0
802 802 4.0
802 803 -1.0
802 832 -1.0
803 803 4.0
803 804 -1.0
803 833 -1.0
804 804 4.0
804 805 -1.0
804 834 -1.0
805 805 4.0
805 806 -1.0
805 835 -1.0
806 806 4.0
806 807 -1.0
806 836 -1.0
807 807 4.0
807 808 -1.0
807 837 -1.0
808 808 4.0
808 809 -1.0
808 838 -1.0
809 809 4.0
809 810 -1.0
809 839 -1.0
810 810 4.0
810 840 -1.0
811 811 4.0
811 812 -1.0
811 841 -1.0
812 812 4.0
812 813 -1.0
812 842 -1.0
813 813 4.0
813 814 -1.0
813 843 -1.0
814 814 4.0
814 815 -1.0
814 844 -1.0
815 815 4.0
815 816 -1.0
815 845 -1.0
816 816 4.0
816 817 -1.0
816 846 -1.0
817 817 4.0
817 818 -1.0
817 847 -1.0
818 818 4.0
818 819 -1.0
818 848 -1.0
819 819 4.0
819 820 -1.0
819 849 -1.0
820 820 4.0
820 821 -1.0
820 850 -1.0
821 821 4.0
821 822 -1.0
821 851 -1.0
822 822 4.0
822 823 -1.0
822 852 -1.0
823 823 4.0
823 824 -1.0
823 853 -1.0
824 824 4.0
824 825 -1.0
824 854 -1.0
825 825 4.0
825 826 -1.0
825 855 -1.0
826 826 4.0
826 827 -1.0
826 856 -1.0
827 827 4.0
827 828 -1.0
827 857 -1.0
828 828 4.0
828 829 -1.0
828 858 -1.0
829 829 4.0
829 830 -1.0
829 859 -1.0
830 830 4.0
830 831 -1.0
830 860 -1.0
831 831 4.0
831 832 -1.0
831 861 -1.0
832 832 4.0
832 833 -1.0
832 862 -1.0
833 833 4.0
833 834 -1.0
833 863 -1.0
834 834 4.0
834 835 -1.0
834 864 -1.0
835 835 4.0
835 836 -1.0
835 865 -1.0
836 836 4.0
836 837 -1.0
836 866 -1.0
837 837 4.0
837 838 -1.0
837 867 -1.0
838 838 4.0
838 839 -1.0
838 868 -1.0
839 839 4.0
839 840 -1.0
839 869 -1.0
840 840 4.0
840 870 -1.0
841 841 4.0
841 842 -1.0
841 871 -1.0
842 842 4.0
842 843 -1.0
842 872 -1.0
843 843 4.0
843 844 -1.0
843 873 -1.0
844 844 4.0
844 845 -1.0
844 874 -1.0
845 845 4.0
845 846 -1.0
845 875 -1.0
846 846 4.0
846 847 -1.0
846 876 -1.0
847 847 4.0
847 848 -1.0
847 877 -1.0
848 848 4.0
848 849 -1.0
848 878 -1.0
849 849 4.0
849 850 -1.0
849 879 -1.0
850 850 4.0
850 851 -1.0
850 880 -1.0
851 851 4.0
851 852 -1.0
851 881 -1.0
852 852 4.0
852 853 -1.0
852 882 -1.0
853 853 4.0
853 854 -1.0
853 883 -1.0
854 854 4.0
854 855 -1.0
854 884 -1.0
855 855 4.0
855 856 -1.0
855 885 -1.0
856 856 4.0
856 857 -1.0
856 886 -1.0
857 857 4.0
857 858 -1.0
857 887 -1.0
858 858 4.0
858 859 -1.0
858 888 -1.0
859 859 4.0
859 860 -1.0
859 889 -1.0
860 860 4.0
860 861 -1.0
860 890 -1.0
861 861 4.0
861 862 -1.0
861 891 -1.0
862 862 4.0
862 863 -1.0
862 892 -1.0
863 863 4.0
863 864 -1.0
863 893 -1.0
864 864 4.0
864 865 -1.0
864 894 -1.0
865 865 4.0
865 866 -1.0
865 895 -1.0
866 866 4.0
866 867 -1.0
866 896 -1.0
867 867 4.0
867 868 -1.0
867 897 -1.0
868 868 4.0
868 869 -1.0
868 898 -1.0
869 869 4.0
869 870 -1.0
869 899 -1.0
870 870 4.0
870 900 -1.0
871 871 4.0
871 872 -1.0
872 872 4.0
872 873 -1.0
873 873 4.0
873 874 -1.0
874 874 4.0
874 875 -1.0
875 875 4.0
875 876 -1.0
876 876 4.0
876 877 -1.0
877 877 4.0
877 878 -1.0
878 878 4.0
878 879 -1.0
879 879 4.0
879 880 -1.0
880 880 4.0
880 881 -1.0
881 881 4.0
881 882 -1.0
882 882 4.0
882 883 -1.0
883 883 4.0
883 884 -1.0
884 884 4.0
884 885 -1.0
885 885 4.0
885 886 -1.0
886 886 4.0
886 887 -1.0
887 887 4.0
887 888 -1.0
888 888 4.0
888 889 -1.0
889 889 4.0
889 890 -1.0
890 890 4.0
890 891 -1.0
891 891 4.0
891 892 -1.0
892 892 4.0
892 893 -1.0
893 893 4.0
893 894 -1.0
894 894 4.0
894 895 -1.0
895 895 4.0
895 896 -1.0
896 896 4.0
896 897 -1.0
897 897 4.0
897 898 -1.0
898 898 4.0
898 899 -1.0
899 899 4.0
899 900 -1.0
900 900 4.0
