%%MatrixMarket matrix array real general
% Right-hand side for pde900: f(x,y) = h^2 (uniform)
900 1
1.04058273e-03
1.04058273e-03
1.04058273e-03
1.04058273e-03
1.04058273e-03
1.04058273e-03
1.04058273e-03
1.04058273e-03
1.04058273e-03
1.04058273e-03
1.04058273e-03
1.04058273e-03
1.04058273e-03
1.04058273e-03
1.04058273e-03
1.04058273e-03
1.04058273e-03
1.04058273e-03
1.04058273e-03
1.04058273e-03
1.04058273e-03
1.04058273e-03
1.04058273e-03
1.04058273e-03
1.04058273e-03
1.04058273e-03
1.04058273e-03
1.04058273e-03
1.04058273e-03
1.04058273e-03
1.04058273e-03
1.04058273e-03
1.04058273e-03
1.04058273e-03
1.04058273e-03
1.04058273e-03
1.04058273e-03
1.04058273e-03
1.04058273e-03
1.04058273e-03
1.04058273e-03
1.04058273e-03
1.04058273e-03
1.04058273e-03
1.04058273e-03
1.04058273e-03
1.04058273e-03
1.04058273e-03
1.04058273e-03
1.04058273e-03
1.04058273e-03
1.04058273e-03
1.04058273e-03
1.04058273e-03
1.04058273e-03
1.04058273e-03
1.04058273e-03
1.04058273e-03
1.04058273e-03
1.04058273e-03
1.04058273e-03
1.04058273e-03
1.04058273e-03
1.04058273e-03
1.04058273e-03
1.04058273e-03
1.04058273e-03
1.04058273e-03
1.04058273e-03
1.04058273e-03
1.04058273e-03
1.04058273e-03
1.04058273e-03
1.04058273e-03
1.04058273e-03
1.04058273e-03
1.04058273e-03
1.04058273e-03
1.04058273e-03
1.04058273e-03
1.04058273e-03
1.04058273e-03
1.04058273e-03
1.04058273e-03
1.04058273e-03
1.04058273e-03
1.04058273e-03
1.04058273e-03
1.04058273e-03
1.04058273e-03
1.04058273e-03
1.04058273e-03
1.04058273e-03
1.04058273e-03
1.04058273e-03
1.04058273e-03
1.04058273e-03
1.04058273e-03
1.04058273e-03
1.04058273e-03
1.04058273e-03
1.04058273e-03
1.04058273e-03
1.04058273e-03
1.04058273e-03
1.04058273e-03
1.04058273e-03
1.04058273e-03
1.04058273e-03
1.04058273e-03
1.04058273e-03
1.04058273e-03
1.04058273e-03
1.04058273e-03
1.04058273e-03
1.04058273e-03
1.04058273e-03
1.04058273e-03
1.04058273e-03
1.04058273e-03
1.04058273e-03
1.04058273e-03
1.04058273e-03
1.04058273e-03
1.04058273e-03
1.04058273e-03
1.04058273e-03
1.04058273e-03
1.04058273e-03
1.04058273e-03
1.04058273e-03
1.04058273e-03
1.04058273e-03
1.04058273e-03
1.04058273e-03
1.04058273e-03
1.04058273e-03
1.04058273e-03
1.04058273e-03
1.04058273e-03
1.04058273e-03
1.04058273e-03
1.04058273e-03
1.04058273e-03
1.04058273e-03
1.04058273e-03
1.04058273e-03
1.04058273e-03
1.04058273e-03
1.04058273e-03
1.04058273e-03
1.04058273e-03
1.04058273e-03
1.04058273e-03
1.04058273e-03
1.04058273e-03
1.04058273e-03
1.04058273e-03
1.04058273e-03
1.04058273e-03
1.04058273e-03
1.04058273e-03
1.04058273e-03
1.04058273e-03
1.04058273e-03
1.04058273e-03
1.04058273e-03
1.04058273e-03
1.04058273e-03
1.04058273e-03
1.04058273e-03
1.04058273e-03
1.04058273e-03
1.04058273e-03
1.04058273e-03
1.04058273e-03
1.04058273e-03
1.04058273e-03
1.04058273e-03
1.04058273e-03
1.04058273e-03
1.04058273e-03
1.04058273e-03
1.04058273e-03
1.04058273e-03
1.04058273e-03
1.04058273e-03
1.04058273e-03
1.04058273e-03
1.04058273e-03
1.04058273e-03
1.04058273e-03
1.04058273e-03
1.04058273e-03
1.04058273e-03
1.04058273e-03
1.04058273e-03
1.04058273e-03
1.04058273e-03
1.04058273e-03
1.04058273e-03
1.04058273e-03
1.04058273e-03
1.04058273e-03
1.04058273e-03
1.04058273e-03
1.04058273e-03
1.04058273e-03
1.04058273e-03
1.04058273e-03
1.04058273e-03
1.04058273e-03
1.04058273e-03
1.04058273e-03
1.04058273e-03
1.04058273e-03
1.04058273e-03
1.04058273e-03
1.04058273e-03
1.04058273e-03
1.04058273e-03
1.04058273e-03
1.04058273e-03
1.04058273e-03
1.04058273e-03
1.04058273e-03
1.04058273e-03
1.04058273e-03
1.04058273e-03
1.04058273e-03
1.04058273e-03
1.04058273e-03
1.04058273e-03
1.04058273e-03
1.04058273e-03
1.04058273e-03
1.04058273e-03
1.04058273e-03
1.04058273e-03
1.04058273e-03
1.04058273e-03
1.04058273e-03
1.04058273e-03
1.04058273e-03
1.04058273e-03
1.04058273e-03
1.04058273e-03
1.04058273e-03
1.04058273e-03
1.04058273e-03
1.04058273e-03
1.04058273e-03
1.04058273e-03
1.04058273e-03
1.04058273e-03
1.04058273e-03
1.04058273e-03
1.04058273e-03
1.04058273e-03
1.04058273e-03
1.04058273e-03
1.04058273e-03
1.04058273e-03
1.04058273e-03
1.04058273e-03
1.04058273e-03
1.04058273e-03
1.04058273e-03
1.04058273e-03
1.04058273e-03
1.04058273e-03
1.04058273e-03
1.04058273e-03
1.04058273e-03
1.04058273e-03
1.04058273e-03
1.04058273e-03
1.04058273e-03
1.04058273e-03
1.04058273e-03
1.04058273e-03
1.04058273e-03
1.04058273e-03
1.04058273e-03
1.04058273e-03
1.04058273e-03
1.04058273e-03
1.04058273e-03
1.04058273e-03
1.04058273e-03
1.04058273e-03
1.04058273e-03
1.04058273e-03
1.04058273e-03
1.04058273e-03
1.04058273e-03
1.04058273e-03
1.04058273e-03
1.04058273e-03
1.04058273e-03
1.04058273e-03
1.04058273e-03
1.04058273e-03
1.04058273e-03
1.04058273e-03
1.04058273e-03
1.04058273e-03
1.04058273e-03
1.04058273e-03
1.04058273e-03
1.04058273e-03
1.04058273e-03
1.04058273e-03
1.04058273e-03
1.04058273e-03
1.04058273e-03
1.04058273e-03
1.04058273e-03
1.04058273e-03
1.04058273e-03
1.04058273e-03
1.04058273e-03
1.04058273e-03
1.04058273e-03
1.04058273e-03
1.04058273e-03
1.04058273e-03
1.04058273e-03
1.04058273e-03
1.04058273e-03
1.04058273e-03
1.04058273e-03
1.04058273e-03
1.04058273e-03
1.04058273e-03
1.04058273e-03
1.04058273e-03
1.04058273e-03
1.04058273e-03
1.04058273e-03
1.04058273e-03
1.04058273e-03
1.04058273e-03
1.04058273e-03
1.04058273e-03
1.04058273e-03
1.04058273e-03
1.04058273e-03
1.04058273e-03
1.04058273e-03
1.04058273e-03
1.04058273e-03
1.04058273e-03
1.04058273e-03
1.04058273e-03
1.04058273e-03
1.04058273e-03
1.04058273e-03
1.04058273e-03
1.04058273e-03
1.04058273e-03
1.04058273e-03
1.04058273e-03
1.04058273e-03
1.04058273e-03
1.04058273e-03
1.04058273e-03
1.04058273e-03
1.04058273e-03
1.04058273e-03
1.04058273e-03
1.04058273e-03
1.04058273e-03
1.04058273e-03
1.04058273e-03
1.04058273e-03
1.04058273e-03
1.04058273e-03
1.04058273e-03
1.04058273e-03
1.04058273e-03
1.04058273e-03
1.04058273e-03
1.04058273e-03
1.04058273e-03
1.04058273e-03
1.04058273e-03
1.04058273e-03
1.04058273e-03
1.04058273e-03
1.04058273e-03
1.04058273e-03
1.04058273e-03
1.04058273e-03
1.04058273e-03
1.04058273e-03
1.04058273e-03
1.04058273e-03
1.04058273e-03
1.04058273e-03
1.04058273e-03
1.04058273e-03
1.04058273e-03
1.04058273e-03
1.04058273e-03
1.04058273e-03
1.04058273e-03
1.04058273e-03
1.04058273e-03
1.04058273e-03
1.04058273e-03
1.04058273e-03
1.04058273e-03
1.04058273e-03
1.04058273e-03
1.04058273e-03
1.04058273e-03
1.04058273e-03
1.04058273e-03
1.04058273e-03
1.04058273e-03
1.04058273e-03
1.04058273e-03
1.04058273e-03
1.04058273e-03
1.04058273e-03
1.04058273e-03
1.04058273e-03
1.04058273e-03
1.04058273e-03
1.04058273e-03
1.04058273e-03
1.04058273e-03
1.04058273e-03
1.04058273e-03
1.04058273e-03
1.04058273e-03
1.04058273e-03
1.04058273e-03
1.04058273e-03
1.04058273e-03
1.04058273e-03
1.04058273e-03
1.04058273e-03
1.04058273e-03
1.04058273e-03
1.04058273e-03
1.04058273e-03
1.04058273e-03
1.04058273e-03
1.04058273e-03
1.04058273e-03
1.04058273e-03
1.04058273e-03
1.04058273e-03
1.04058273e-03
1.04058273e-03
1.04058273e-03
1.04058273e-03
1.04058273e-03
1.04058273e-03
1.04058273e-03
1.04058273e-03
1.04058273e-03
1.04058273e-03
1.04058273e-03
1.04058273e-03
1.04058273e-03
1.04058273e-03
1.04058273e-03
1.04058273e-03
1.04058273e-03
1.04058273e-03
1.04058273e-03
1.04058273e-03
1.04058273e-03
1.04058273e-03
1.04058273e-03
1.04058273e-03
1.04058273e-03
1.04058273e-03
1.04058273e-03
1.04058273e-03
1.04058273e-03
1.04058273e-03
1.04058273e-03
1.04058273e-03
1.04058273e-03
1.04058273e-03
1.04058273e-03
1.04058273e-03
1.04058273e-03
1.04058273e-03
1.04058273e-03
1.04058273e-03
1.04058273e-03
1.04058273e-03
1.04058273e-03
1.04058273e-03
1.04058273e-03
1.04058273e-03
1.04058273e-03
1.04058273e-03
1.04058273e-03
1.04058273e-03
1.04058273e-03
1.04058273e-03
1.04058273e-03
1.04058273e-03
1.04058273e-03
1.04058273e-03
1.04058273e-03
1.04058273e-03
1.04058273e-03
1.04058273e-03
1.04058273e-03
1.04058273e-03
1.04058273e-03
1.04058273e-03
1.04058273e-03
1.04058273e-03
1.04058273e-03
1.04058273e-03
1.04058273e-03
1.04058273e-03
1.04058273e-03
1.04058273e-03
1.04058273e-03
1.04058273e-03
1.04058273e-03
1.04058273e-03
1.04058273e-03
1.04058273e-03
1.04058273e-03
1.04058273e-03
1.04058273e-03
1.04058273e-03
1.04058273e-03
1.04058273e-03
1.04058273e-03
1.04058273e-03
1.04058273e-03
1.04058273e-03
1.04058273e-03
1.04058273e-03
1.04058273e-03
1.04058273e-03
1.04058273e-03
1.04058273e-03
1.04058273e-03
1.04058273e-03
1.04058273e-03
1.04058273e-03
1.04058273e-03
1.04058273e-03
1.04058273e-03
1.04058273e-03
1.04058273e-03
1.04058273e-03
1.04058273e-03
1.04058273e-03
1.04058273e-03
1.04058273e-03
1.04058273e-03
1.04058273e-03
1.04058273e-03
1.04058273e-03
1.04058273e-03
1.04058273e-03
1.04058273e-03
1.04058273e-03
1.04058273e-03
1.04058273e-03
1.04058273e-03
1.04058273e-03
1.04058273e-03
1.04058273e-03
1.04058273e-03
1.04058273e-03
1.04058273e-03
1.04058273e-03
1.04058273e-03
1.04058273e-03
1.04058273e-03
1.04058273e-03
1.04058273e-03
1.04058273e-03
1.04058273e-03
1.04058273e-03
1.04058273e-03
1.04058273e-03
1.04058273e-03
1.04058273e-03
1.04058273e-03
1.04058273e-03
1.04058273e-03
1.04058273e-03
1.04058273e-03
1.04058273e-03
1.04058273e-03
1.04058273e-03
1.04058273e-03
1.04058273e-03
1.04058273e-03
1.04058273e-03
1.04058273e-03
1.04058273e-03
1.04058273e-03
1.04058273e-03
1.04058273e-03
1.04058273e-03
1.04058273e-03
1.04058273e-03
1.04058273e-03
1.04058273e-03
1.04058273e-03
1.04058273e-03
1.04058273e-03
1.04058273e-03
1.04058273e-03
1.04058273e-03
1.04058273e-03
1.04058273e-03
1.04058273e-03
1.04058273e-03
1.04058273e-03
1.04058273e-03
1.04058273e-03
1.04058273e-03
1.04058273e-03
1.04058273e-03
1.04058273e-03
1.04058273e-03
1.04058273e-03
1.04058273e-03
1.04058273e-03
1.04058273e-03
1.04058273e-03
1.04058273e-03
1.04058273e-03
1.04058273e-03
1.04058273e-03
1.04058273e-03
1.04058273e-03
1.04058273e-03
1.04058273e-03
1.04058273e-03
1.04058273e-03
1.04058273e-03
1.04058273e-03
1.04058273e-03
1.04058273e-03
1.04058273e-03
1.04058273e-03
1.04058273e-03
1.04058273e-03
1.04058273e-03
1.04058273e-03
1.04058273e-03
1.04058273e-03
1.04058273e-03
1.04058273e-03
1.04058273e-03
1.04058273e-03
1.04058273e-03
1.04058273e-03
1.04058273e-03
1.04058273e-03
1.04058273e-03
1.04058273e-03
1.04058273e-03
1.04058273e-03
1.04058273e-03
1.04058273e-03
1.04058273e-03
1.04058273e-03
1.04058273e-03
1.04058273e-03
1.04058273e-03
1.04058273e-03
1.04058273e-03
1.04058273e-03
1.04058273e-03
1.04058273e-03
1.04058273e-03
1.04058273e-03
1.04058273e-03
1.04058273e-03
1.04058273e-03
1.04058273e-03
1.04058273e-03
1.04058273e-03
1.04058273e-03
1.04058273e-03
1.04058273e-03
1.04058273e-03
1.04058273e-03
1.04058273e-03
1.04058273e-03
1.04058273e-03
1.04058273e-03
1.04058273e-03
1.04058273e-03
1.04058273e-03
1.04058273e-03
1.04058273e-03
1.04058273e-03
1.04058273e-03
1.04058273e-03
1.04058273e-03
1.04058273e-03
1.04058273e-03
1.04058273e-03
1.04058273e-03
1.04058273e-03
1.04058273e-03
1.04058273e-03
1.04058273e-03
1.04058273e-03
1.04058273e-03
1.04058273e-03
1.04058273e-03
1.04058273e-03
1.04058273e-03
1.04058273e-03
1.04058273e-03
1.04058273e-03
1.04058273e-03
1.04058273e-03
1.04058273e-03
1.04058273e-03
1.04058273e-03
1.04058273e-03
1.04058273e-03
1.04058273e-03
1.04058273e-03
1.04058273e-03
1.04058273e-03
1.04058273e-03
1.04058273e-03
1.04058273e-03
1.04058273e-03
1.04058273e-03
1.04058273e-03
1.04058273e-03
1.04058273e-03
1.04058273e-03
1.04058273e-03
1.04058273e-03
1.04058273e-03
1.04058273e-03
1.04058273e-03
1.04058273e-03
1.04058273e-03
1.04058273e-03
1.04058273e-03
1.04058273e-03
1.04058273e-03
1.04058273e-03
1.04058273e-03
1.04058273e-03
1.04058273e-03
1.04058273e-03
1.04058273e-03
1.04058273e-03
1.04058273e-03
1.04058273e-03
1.04058273e-03
1.04058273e-03
1.04058273e-03
1.04058273e-03
1.04058273e-03
1.04058273e-03
1.04058273e-03
1.04058273e-03
1.04058273e-03
1.04058273e-03
1.04058273e-03
1.04058273e-03
1.04058273e-03
1.04058273e-03
1.04058273e-03
1.04058273e-03
1.04058273e-03
1.04058273e-03
1.04058273e-03
1.04058273e-03
1.04058273e-03
1.04058273e-03
1.04058273e-03
1.04058273e-03
1.04058273e-03
1.04058273e-03
1.04058273e-03
1.04058273e-03
1.04058273e-03
1.04058273e-03
1.04058273e-03
1.04058273e-03
1.04058273e-03
1.04058273e-03
1.04058273e-03
1.04058273e-03
1.04058273e-03
1.04058273e-03
1.04058273e-03
1.04058273e-03
1.04058273e-03
1.04058273e-03
1.04058273e-03
1.04058273e-03
1.04058273e-03
1.04058273e-03
1.04058273e-03
1.04058273e-03
1.04058273e-03
1.04058273e-03
1.04058273e-03
1.04058273e-03
1.04058273e-03
1.04058273e-03
1.04058273e-03
1.04058273e-03
1.04058273e-03
1.04058273e-03
1.04058273e-03
1.04058273e-03
1.04058273e-03
1.04058273e-03
1.04058273e-03
1.04058273e-03
1.04058273e-03
1.04058273e-03
1.04058273e-03
1.04058273e-03
1.04058273e-03
1.04058273e-03
1.04058273e-03
1.04058273e-03
1.04058273e-03
1.04058273e-03
1.04058273e-03
1.04058273e-03
1.04058273e-03
1.04058273e-03
1.04058273e-03
1.04058273e-03
1.04058273e-03
1.04058273e-03
1.04058273e-03
1.04058273e-03
1.04058273e-03
1.04058273e-03
1.04058273e-03
1.04058273e-03
1.04058273e-03
1.04058273e-03
1.04058273e-03
1.04058273e-03
1.04058273e-03
1.04058273e-03
1.04058273e-03
1.04058273e-03
1.04058273e-03
1.04058273e-03
1.04058273e-03
1.04058273e-03
1.04058273e-03
1.04058273e-03
1.04058273e-03
1.04058273e-03
1.04058273e-03
1.04058273e-03
1.04058273e-03
1.04058273e-03
1.04058273e-03
1.04058273e-03
1.04058273e-03
1.04058273e-03
1.04058273e-03
1.04058273e-03
1.04058273e-03
1.04058273e-03
1.04058273e-03
1.04058273e-03
1.04058273e-03
1.04058273e-03
1.04058273e-03
1.04058273e-03
1.04058273e-03
1.04058273e-03
1.04058273e-03
1.04058273e-03
1.04058273e-03
1.04058273e-03
1.04058273e-03
1.04058273e-03
1.04058273e-03
1.04058273e-03
1.04058273e-03
